 vasp.6.3.2 27Jun22 (build Jan 03 2024 23:25:20) gamma-only

 executed on           IFC15_impi date 2024.06.05  03:38:26

 INCAR:
   ENCUT = 500.000000
   SIGMA = 0.010000
   EDIFF = 1.00e-05
   ALGO = A
   ISMEAR = 0
   NELM = 200
   NSW = 999
   NCORE = 32
   LCHARG = .TRUE.
   LWAVE = .TRUE.
   LREAL = Auto
   IBRION = 5
   POTIM = 0.015
   NFREE = 2
   ISYM = 0
   EDIFFG = -0.05
   GGA = BF
   LUSE_VDW = .TRUE.
   ZAB_VDW = -1.8867
   LBEEFENS = .TRUE.
   DIPOL = 0.5 0.5 0.65
   IDIPOL = 3
   LDIPOL = .TRUE.

 POTCAR:    PAW_PBE Au 04Oct2007
 POTCAR:    PAW_PBE O 08Apr2002
 POTCAR:    PAW_PBE Sr_sv 07Sep2000
 POTCAR:    PAW_PBE Ti_sv 26Sep2005
 POTCAR:    PAW_PBE H 15Jun2001
|               ----> ADVICE to this user running VASP <----                  |
|     You have switched on vdW-DFT.                                           |
|     This routine was written and supplied by Jiri Klimes. We recommend      |
|     that you carefully read and cite the following publications:            |
|       J. Klimes, D.R. Bowler, A. Michelides                                 |
|          J. Phys.: Cond Matt. 22 022201 (2010)                              |
|       J. Klimes, D.R. Bowler, A. Michelides                                 |
|          Phys. Rev. B. 83, 195131 (2011)                                    |
|     and references therein.                                                 |

   TITEL  = PAW_PBE Au 04Oct2007
   POMASS =  196.966; ZVAL   =   11.000    mass and valenz
   ENMAX  =  229.943; ENMIN  =  172.457 eV

   TITEL  = PAW_PBE O 08Apr2002
   POMASS =   16.000; ZVAL   =    6.000    mass and valenz
   ENMAX  =  400.000; ENMIN  =  300.000 eV

   TITEL  = PAW_PBE Sr_sv 07Sep2000
   POMASS =   87.620; ZVAL   =   10.000    mass and valenz
   ENMAX  =  229.353; ENMIN  =  172.014 eV

   TITEL  = PAW_PBE Ti_sv 26Sep2005
   POMASS =   47.880; ZVAL   =   12.000    mass and valenz
   ENMAX  =  274.610; ENMIN  =  205.957 eV

   TITEL  = PAW_PBE H 15Jun2001
   POMASS =    1.000; ZVAL   =    1.000    mass and valenz
   ENMAX  =  250.000; ENMIN  =  200.000 eV

 Optimization of the real space projectors (new method)

 maximal supplied QI-value         = 15.12
 optimisation between [QCUT,QGAM] = [ 11.34, 22.83] = [ 36.00,145.93] Ry
 Optimized for a Real-space Cutoff    1.39 Angstroem

   l    n(q)    QCUT    max X(q) W(low)/X(q) W(high)/X(q)  e(spline)
   2      9    11.338    60.898    0.39E-03    0.42E-03    0.21E-06
   2      9    11.338    58.894    0.40E-03    0.42E-03    0.22E-06
   0      9    11.338   109.617    0.13E-03    0.20E-04    0.13E-06
   0      9    11.338    75.026    0.13E-03    0.20E-04    0.13E-06
   1      9    11.338    16.344    0.33E-04    0.24E-03    0.18E-06
   1      9    11.338    10.160    0.26E-04    0.19E-03    0.15E-06
 Optimization of the real space projectors (new method)

[...]

   l    n(q)    QCUT    max X(q) W(low)/X(q) W(high)/X(q)  e(spline)
   0      9    11.376    12.277    0.53E-04    0.25E-04    0.25E-07
   0      9    11.376    11.419    0.89E-04    0.67E-05    0.35E-07
   1      8    11.376     4.010    0.13E-03    0.11E-03    0.29E-07
   1      8    11.376     6.182    0.94E-04    0.19E-03    0.11E-06
   2      8    11.376    47.177    0.13E-03    0.88E-03    0.24E-06
   2      8    11.376    42.437    0.13E-03    0.86E-03    0.23E-06
 Optimization of the real space projectors (new method)

 maximal supplied QI-value         = 34.20
 optimisation between [QCUT,QGAM] = [ 11.29, 22.57] = [ 35.68,142.71] Ry
 Optimized for a Real-space Cutoff    1.16 Angstroem

   l    n(q)    QCUT    max X(q) W(low)/X(q) W(high)/X(q)  e(spline)
   0      8    11.287    19.460    0.40E-03    0.73E-03    0.16E-06
   0      8    11.287    12.209    0.38E-03    0.70E-03    0.15E-06
   1      7    11.287     4.655    0.22E-03    0.25E-04    0.22E-06
|               ----> ADVICE to this user running VASP <----                  |
|     You enforced a specific xc type in the INCAR file but a different       |
|     type was found in the POTCAR file.                                      |
|     I HOPE YOU KNOW WHAT YOU ARE DOING!                                     |

  PAW_PBE Au 04Oct2007                  :
  PAW_PBE O 08Apr2002                   :
  PAW_PBE Sr_sv 07Sep2000               :
  PAW_PBE Ti_sv 26Sep2005               :
  PAW_PBE H 15Jun2001                   :

 POSCAR: Au O  Sr Ti H
  positions in cartesian coordinates
 exchange correlation table for  LEXCH =       17
   RHO(1)=    0.500       N(1)  =     2000
   RHO(2)=  100.500       N(2)  =     4000

 VTST: version 4.1, (05/19/21)

 CHAIN: initializing optimizer

 OPT: Using VASP Dynamics algorithm
 CHAIN: Read ICHAIN            0

 POSCAR: Au O  Sr Ti H
  positions in cartesian coordinates

 ion  position               nearest neighbor table
   1  0.717  0.526  0.754-  15 2.71  16 2.72  14 2.78  44 2.83   2 2.84  29 2.96  46 3.00
   2  0.623  0.569  0.704- 264 2.08  15 2.82   1 2.84  46 2.88  48 2.88  16 2.91  12 2.92  36 3.04
                            11 3.29   5 3.49 380 3.71
   3  0.719  0.259  0.692- 294 2.06 253 2.07  32 2.65  43 2.79  27 2.83 401 3.04 370 4.02 371 4.03

   4  0.295  0.746  0.697- 310 2.06 266 2.06   9 2.78  23 2.81  50 3.09  42 3.16  45 3.55 368 4.18
                           372 4.19
   5  0.512  0.604  0.777-  26 2.69  48 2.76  13 2.84  12 2.92  47 2.93  39 2.95  16 3.03   6 3.16
                            49 3.35  31 3.47   2 3.49
   6  0.578  0.725  0.793-  18 2.72  36 2.73  17 2.79  47 2.80  13 2.99   5 3.16  48 3.17  16 3.43

   7  0.550  0.384  0.829-  10 2.77  33 2.81  29 2.86  20 2.87  34 2.97  31 2.97  12 3.04  41 3.37

   8  0.241  0.469  0.709- 309 2.11  19 2.69  24 2.81  45 2.82  40 2.97  35 3.09 378 4.16
   9  0.285  0.662  0.765-  45 2.70  30 2.75  50 2.76   4 2.78  24 2.81
  10  0.603  0.289  0.787-   7 2.77  41 2.79  32 2.79  27 2.80  43 2.80  25 3.06  34 3.27
  11  0.514  0.484  0.678- 279 2.11 247 2.16  26 2.69  12 2.78  49 2.90  34 2.91 389 3.13   2 3.29
                            46 3.33 375 3.55  37 3.59 386 4.04
  12  0.562  0.486  0.763-  11 2.78  34 2.80  49 2.84  29 2.85  31 2.88   5 2.92   2 2.92  46 2.98
                            16 3.00   7 3.04
  13  0.464  0.695  0.831-  50 2.80  30 2.84   5 2.84  47 2.85  39 2.91  18 2.93   6 2.99
  14  0.765  0.432  0.706- 254 2.01  44 2.72   1 2.78  46 2.80  43 2.87 363 3.73 370 4.24
  15  0.733  0.615  0.694- 292 2.09 250 2.11  36 2.67   1 2.71   2 2.82  28 3.23 380 3.41 365 3.72

  16  0.635  0.584  0.800-   1 2.72  47 2.76  36 2.78  31 2.82   2 2.91  12 3.00   5 3.03  29 3.24
                             6 3.43
  17  0.595  0.784  0.713- 257 2.09  28 2.78   6 2.79  18 2.92  48 2.94  36 3.09 379 4.19 384 4.35

[...]

  27  0.614  0.321  0.697- 263 2.04  43 2.76  10 2.80   3 2.83  46 2.85  25 2.86  34 2.87  32 3.50
                           370 3.56 375 4.22
  28  0.706  0.757  0.689- 293 2.05 250 2.05  36 2.63  17 2.78 400 3.13  15 3.23 379 3.81 380 4.18

[...]

  30  0.368  0.619  0.820-   9 2.75  39 2.78  13 2.84  38 2.85  24 2.90  50 2.97
  31  0.570  0.510  0.857-  33 2.77  16 2.82  29 2.87  12 2.88  47 2.90  39 2.92   7 2.97   5 3.47

  32  0.665  0.193  0.752-   3 2.65  10 2.79  25 2.87  27 3.50  43 3.53
  33  0.471  0.450  0.879-  31 2.77  20 2.77  39 2.79   7 2.81  38 2.83
  34  0.516  0.377  0.734-  12 2.80  41 2.81  49 2.86  27 2.87  11 2.91   7 2.97  37 3.09  20 3.17
                            10 3.27 375 4.18
  35  0.283  0.338  0.703- 267 2.06  21 2.78  40 2.81  37 2.91   8 3.09 369 3.53 378 4.09
  36  0.669  0.681  0.749-  28 2.63  15 2.67   6 2.73  16 2.78   2 3.04  17 3.09  48 3.34
  37  0.398  0.382  0.690- 303 2.03 289 2.13  21 2.76  19 2.87  35 2.91  40 3.00  49 3.07  34 3.09
                           369 3.38  22 3.59  11 3.59 375 3.77
  38  0.375  0.493  0.833-  24 2.81  33 2.83  49 2.84  40 2.85  30 2.85  39 2.88  20 3.04
  39  0.462  0.573  0.864-  30 2.78  33 2.79  47 2.83  38 2.88  13 2.91  31 2.92   5 2.95
  40  0.326  0.414  0.769-  35 2.81  21 2.83  38 2.85  24 2.89  19 2.93   8 2.97  20 2.98  37 3.00
                            49 3.11
  41  0.487  0.269  0.775-  22 2.74  10 2.79  34 2.81  25 2.84  21 2.86  20 2.92   7 3.37
  42  0.421  0.698  0.699- 256 2.03  26 2.73  50 2.77  23 2.78  18 2.93  48 2.97   4 3.16 386 4.07
                           368 4.07
  43  0.700  0.347  0.756-  27 2.76   3 2.79  10 2.80  44 2.82  14 2.87  29 2.90  46 3.05  32 3.53

  44  0.774  0.430  0.796-  14 2.72  43 2.82   1 2.83  29 2.85
  45  0.257  0.592  0.695- 265 2.03 310 2.11   9 2.70   8 2.82  24 2.88  19 3.01   4 3.55 368 3.57
                           373 3.71
  46  0.648  0.443  0.697- 279 2.19  14 2.80  27 2.85   2 2.88  12 2.98   1 3.00  43 3.05  11 3.33
                            29 3.49 370 3.51
  47  0.564  0.639  0.861-  16 2.76   6 2.80  39 2.83  13 2.85  31 2.90   5 2.93
  48  0.542  0.666  0.701- 280 2.11   5 2.76  26 2.87   2 2.88  17 2.94  42 2.97   6 3.17  18 3.30
                            36 3.34 386 3.47
  49  0.443  0.475  0.756-  38 2.84  12 2.84  26 2.86  34 2.86  19 2.89  11 2.90  20 2.91  37 3.07
                            40 3.11   5 3.35
  50  0.374  0.739  0.779-   9 2.76  42 2.77  13 2.80  23 2.81  18 2.85  30 2.97   4 3.09
  51  0.250  0.189  0.454- 448 1.97 418 2.13 319 2.74 360 2.81 342 2.81 327 2.85
  52  0.750  0.939  0.455- 417 1.95 444 1.99 350 2.82 339 2.84 322 2.84 332 2.86
  53  0.749  0.689  0.457- 432 1.98 446 2.04 325 2.78 362 2.84 348 2.85 316 2.88
  54  0.749  0.438  0.456- 422 1.99 458 2.01 323 2.71 347 2.82 349 2.84 359 2.85
  55  0.750  0.190  0.456- 445 1.98 423 2.10 324 2.75 335 2.79 358 2.85 346 2.86
  56  0.417  0.936  0.454- 424 1.99 440 2.01 357 2.77 345 2.79 329 2.87 320 2.91
  57  0.417  0.685  0.455- 414 1.91 443 2.04 356 2.77 344 2.79 321 2.83 331 2.91
  58  0.416  0.435  0.454- 415 1.96 442 2.01 343 2.77 355 2.78 333 2.84 318 2.85
  59  0.085  0.687  0.453- 439 1.97 413 2.08 352 2.75 340 2.79 330 2.82 336 2.94
  60  0.084  0.937  0.453- 436 1.98 412 2.11 353 2.77 341 2.79 338 2.89 326 2.90
  61  0.083  0.437  0.453- 438 1.97 421 2.11 361 2.76 351 2.78 328 2.79 317 2.92
  62  0.084  0.187  0.453- 437 1.98 433 2.11 360 2.76 385 2.78 327 2.87 337 2.89
  63  0.917  0.812  0.454- 434 1.99 411 2.09 362 2.76 339 2.80 341 2.80 336 2.87
  64  0.916  0.562  0.454- 435 1.98 410 2.11 349 2.78 316 2.79 340 2.80 317 2.88
  65  0.251  0.439  0.455- 449 1.98 420 2.06 318 2.70 343 2.81 351 2.85 328 2.85
  66  0.916  0.061  0.455- 455 1.98 430 2.11 358 2.82 332 2.82 385 2.83 338 2.85
  67  0.916  0.312  0.454- 456 1.98 429 2.09 335 2.79 359 2.79 361 2.81 337 2.88
  68  0.417  0.187  0.454- 441 1.98 416 2.07 354 2.78 342 2.79 334 2.81 319 2.88
  69  0.252  0.688  0.456- 419 1.99 450 2.03 321 2.76 344 2.80 352 2.87 330 2.89
  70  0.917  0.936  0.453- 455 1.98 411 2.11 341 2.76 339 2.77 338 2.89 332 2.90
  71  0.583  0.190  0.455- 452 1.98 426 2.09 334 2.72 324 2.78 354 2.83 346 2.85
  72  1.000  0.125  0.499- 430 1.96 433 1.99 385 2.76 338 2.80 337 2.80 315 3.42
  73  0.583  0.810  0.455- 454 1.98 431 2.10 325 2.73 331 2.75 357 2.84 350 2.85
  74  1.000  0.374  0.498- 429 1.94 421 1.96 361 2.74 337 2.76 317 2.85
[...]
  303        fft3d_mpi                             4.559160                          497   3
  304          fftbrc_mpi                            4.348682                        497   4
  305            fftbas_plan_mpi                       4.347037                      497   5
  306              dfftw_execute                         0.633668                   1491   6
  307              map_forward                           1.796242                    490   6
  308                map_gather                            0.030751                  245   7
  309                m_alltoallv_z                         1.497442                  245   7
  310                map_scatter                           0.262754                  245   7
  311              map_backward                          1.564326                    504   6
  312                map_gather                            0.183255                  252   7
  313                m_alltoallv_z                         1.309457                  252   7
  314                map_scatter                           0.066537                  252   7
  315        ggaall_grid                           1.318569                            7   3
  316        forhar                                2.817378                            7   3
  317          m_sumb_d                              0.066677                          7   4
  318        strehar                               0.051444                            7   3
  319          m_sumb_d                              0.011922                          7   4
  320        m_bcast_d                             0.007734                           14   3
  321      potlok                               71.862468                             13   2
  322        fft3d_mpi                            25.885858                         2741   3
  323          fftbrc_mpi                           24.844975                       2741   4
  324            fftbas_plan_mpi                      24.835596                     2741   5
  325              dfftw_execute                         3.485119                   8223   6
  326              map_forward                           9.549685                   2754   6
  327                map_gather                            0.215851                 1390   7
  328                m_alltoallv_z                         7.744374                 1390   7
  329                map_scatter                           1.560905                 1390   7
  330              map_backward                          9.888972                   2728   6
  331                map_gather                            1.032551                 1364   7
  332                m_alltoallv_z                         8.467559                 1364   7
  333                map_scatter                           0.361779                 1364   7
  334        ggaall_grid                          18.857491                          237   3
  335        m_sumb_d                              0.426449                         1224   3
  336        fewald                                0.018261                           26   3
  337          rsp                                   0.016670                         26   4
  338          rcp                                   0.001308                         26   4
  339        pothar                                0.023484                           13   3
  340          m_sumb_d                              0.016216                         13   4
  341        m_bcast_d                             0.053984                           13   3
  342      potlok_metagga                        0.000058                             13   2
  343      set_dd_magatom                        0.000008                              7   2
  344      set_dd_paw                            0.160086                             13   2
  345        set_rsgf_all                          0.000022                           13   3
  346        m_sumb_d                              0.155991                           91   3
  347      m_sumb_d                             51.302674                           3518   2
  348      wavpre_noio                           1.626548                              6   2
  349        stufak                                1.545764                            6   3
  350      eddiag                              192.741917                              6   2
  351        overl                                 0.008067                            6   3
  352        redis_proj                            0.807613                           18   3
  353          m_alltoall_d                          0.800549                       2520   4
  354        fftwav_mpi                            5.782217                          840   3
  355          fft3d_mpi                             4.858013                        840   4
  356            fftbrc_mpi                            3.511317                      840   5
  357              fftbas_plan_mpi                       3.508547                    840   6
  358                dfftw_execute                         1.613270                 2520   7
  359                map_forward                           1.403820                 1680   7
  360                  map_gather                            0.133194                840   8
  361                  m_alltoallv_z                         0.448734                840   8
  362                  map_scatter                           0.239896                840   8
  363        hamilt_local                          4.038172                          840   3
  364          vhamil                                1.138554                        840   4
  365          kinhamil                              2.891681                        840   4
  366            fftext_mpi                            2.839678                      840   5
  367              fft3d_mpi                             2.757159                    840   6
  368                fftbrc_mpi                            2.298800                  840   7
  369                  fftbas_plan_mpi                       2.296144                840   8
  370                    dfftw_execute                         1.152989             2520   9
  371                    map_backward                          0.660801             1680   9
  372                      map_gather                            0.133999            840  10
  373                      m_alltoallv_z                         0.395989            840  10
  374                      map_scatter                           0.116941            840  10
  375        redis_pw                              1.589825                          846   3
  376          m_alltoall_d                          1.529616                       2520   4
  377        orth1                                 2.219635                          420   3
  378        m_sumb_d                              1.169180                            6   3
  379        shift_bands_between_low_high          0.000009                            6   3
  380        lincom                                1.783890                            6   3

 Flat profile

 edwav                               12098.597147         762
 potlok                               1397.821841         775
 dfftw_execute                         727.030596     1300647
 lincom                                627.008261        2306
 m_alltoall_d                          594.237887     1829380
 m_alltoallv_z                         544.151791      435093
 m_sumb_d                              543.804356      764837
 orth1                                 522.710153      108080
 total_time                            473.159789           1
 fft3d_mpi                             408.864588      433549
 eddiag                                349.134071         394
 fftbas_plan_mpi                       314.751146      433549
 choleski                              261.905034         769
 fftwav_mpi                            257.319547      264638
 eccp                                  221.039313      213360
 ggaall_grid                           168.414570        1006
 map_forward                           163.385280      588926
 map_scatter                           132.263305      435093
 racc0                                 107.706617       53340
 pw_charge                              99.701269       90058
 rpro1                                  84.152946       53340
 map_gather                             82.632201      435093
 vhamil                                 73.999272       55160
 w1_dscal                               53.863949       53340
 orthch                                 31.631588         769
 setdij_                                27.147444         958
 augmentation_charge                    24.904031         769
 m_bcast_z                              12.650326        2381
 force_and_stress                       12.635266           7
 redis_pw                               11.367580      217112
 rpromu                                  8.773144        3185
 fftext_mpi                              8.144287      108500
 redis_proj                              5.318558      168462
 rpromu_gemm                             4.820792      726180
 overl                                   3.372207       54884
 rspher_all                              3.223006          92
 m_bcast_d                               3.091494         805
 soft_charge                             2.786680         769
 forloc                                  2.761900           7
 forhar                                  2.750701           7
 map_backward                            2.402280      278172
 elmin_all                               2.381781           7
 kinhamil                                2.356932       55160
 stufak                                  1.805700           7
 densta                                  1.427276         770
 fftbrc_mpi                              1.376113      433549
 rsp                                     1.057893        1557
 depsum                                  0.860947         769
 hamilt_local                            0.462151       55160
 set_charge                              0.456771         769
 pothar                                  0.449158         775
 set_dd_paw                              0.387914         782
 fft_gq                                  0.215731         769
 rpro_isp                                0.161492          91
 strnlr                                  0.145111           7
 fewald                                  0.094190        1557
 wavpre_noio                             0.080784           6
 rcp                                     0.079286        1557
 strkin                                  0.039846           7
 strehar                                 0.039522           7
 fornlr                                  0.039343           7
 strelo                                  0.038325           7
 redis_pw_all                            0.009170         762
 potlok_metagga                          0.003295         775
 redis_pw_over_bands                     0.002930         775
 fordep                                  0.001913           7
 set_rsgf_all                            0.001590         782
 brgrid                                  0.000822           1
 phaser                                  0.000376         472
 crpa_reader                             0.000295           1
 vectorpot                               0.000156           1
 rotate_active_occupied_orbital          0.000129           7
 proall                                  0.000104           7
 set_dd_magatom                          0.000042          14
 shift_bands_between_low_high            0.000022          13
  summed up times    20489.4133231640

 Accumulative profile

 total_time                          20439.179645           1
 elmin_all                           19490.627759           7
 edwav                               16149.458561         762
 fft3d_mpi                            2326.623624      433549
 potlok                               2117.838624         775
 fftbrc_mpi                           1917.759036      433549
 fftbas_plan_mpi                      1916.382922      433549
 fftwav_mpi                           1667.414558      264638
 orthch                                911.635391         769
 eddiag                                768.316220         394
 dfftw_execute                         727.030596     1300647
 set_charge                            677.245779         769
 soft_charge                           639.379615         769
 map_forward                           639.278033      588926
 lincom                                627.008261        2306
 m_alltoall_d                          594.237887     1829380
 m_alltoallv_z                         544.151791      435093
 m_sumb_d                              543.804356      764837
 orth1                                 522.710153      108080
 fftext_mpi                            367.052448      108500
 redis_pw                              337.486346      217112
 map_backward                          285.556825      278172
 redis_proj                            273.437679      168462
 hamilt_local                          262.062104       55160
 choleski                              261.905034         769
 eccp                                  234.226953      213360
 kinhamil                              187.600682       55160
 ggaall_grid                           168.414570        1006
 map_scatter                           132.263305      435093
 racc0                                 132.256556       53340
 force_and_stress                      120.582012           7
 pw_charge                              99.701269       90058
 rpro1                                  95.168191       53340
 rpro_isp                               93.031419          91
 map_gather                             82.632201      435093
 vhamil                                 73.999272       55160
 strnlr                                 67.172848           7
 w1_dscal                               53.863949       53340
 redis_pw_over_bands                    49.005290         775
 redis_pw_all                           49.002360         762
 setdij_                                36.204395         958
 augmentation_charge                    35.732093         769
 fornlr                                 22.382866           7
 rpromu                                 15.712811        3185
 m_bcast_z                              12.650326        2381
 set_dd_paw                             10.054121         782
 proall                                  7.177816           7
 densta                                  6.080502         770
 rpromu_gemm                             4.820792      726180
 fft_gq                                  4.736236         769
 overl                                   3.372207       54884
 rspher_all                              3.223006          92
 m_bcast_d                               3.091494         805
 forhar                                  2.817378           7
 forloc                                  2.800179           7
 stufak                                  1.805700           7
 depsum                                  1.677299         769
 wavpre_noio                             1.626548           6
 fordep                                  1.505258           7
 fewald                                  1.431252        1557
 pothar                                  1.425459         775
 rsp                                     1.057893        1557
 rcp                                     0.079286        1557
 strelo                                  0.052210           7
 strehar                                 0.051444           7
 strkin                                  0.044898           7
 potlok_metagga                          0.003295         775
 set_rsgf_all                            0.001590         782
 brgrid                                  0.000822           1
 phaser                                  0.000376         472
 crpa_reader                             0.000295           1
 vectorpot                               0.000156           1
 rotate_active_occupied_orbital          0.000129           7
 set_dd_magatom                          0.000042          14
 shift_bands_between_low_high            0.000022          13

Profiling took  11.958908  3.852156  0.010166  0.009553 seconds
Profiling took  14.268265 seconds