 vasp.6.3.2 27Jun22 (build Jan 03 2024 23:05:41) complex

 executed on           IFC15_impi date 2024.03.20  21:23:14

 INCAR:
   ENCUT = 500.000000
   SIGMA = 0.010000
   EDIFF = 1.00e-05
   ALGO = A
   ISMEAR = 0
   NELM = 200
   NSW = 500
   NCORE = 8
   LCHARG = .FALSE.
   LWAVE = .FALSE.
   LREAL = Auto
   NCORE = 8
   IBRION = 2
   EDIFFG = -0.02
   GGA = BF
   LUSE_VDW = .TRUE.
   ZAB_VDW = -1.8867
   LBEEFENS = .TRUE.
   DIPOL = 0.5 0.5 0.5
   IDIPOL = 3
   LDIPOL = .TRUE.

 POTCAR:    PAW_PBE Au 04Oct2007
|               ----> ADVICE to this user running VASP <----                  |
|     You have switched on vdW-DFT.                                           |
|     This routine was written and supplied by Jiri Klimes. We recommend      |
|     that you carefully read and cite the following publications:            |
|       J. Klimes, D.R. Bowler, A. Michelides                                 |
|          J. Phys.: Cond Matt. 22 022201 (2010)                              |
|       J. Klimes, D.R. Bowler, A. Michelides                                 |
|          Phys. Rev. B. 83, 195131 (2011)                                    |
|     and references therein.                                                 |

   TITEL  = PAW_PBE Au 04Oct2007
   POMASS =  196.966; ZVAL   =   11.000    mass and valenz
   ENMAX  =  229.943; ENMIN  =  172.457 eV

 Optimization of the real space projectors (new method)

 maximal supplied QI-value         = 15.12
 optimisation between [QCUT,QGAM] = [ 11.34, 22.83] = [ 36.00,145.93] Ry
 Optimized for a Real-space Cutoff    1.39 Angstroem

   l    n(q)    QCUT    max X(q) W(low)/X(q) W(high)/X(q)  e(spline)
   2      9    11.338    60.898    0.39E-03    0.42E-03    0.21E-06
   2      9    11.338    58.894    0.40E-03    0.42E-03    0.22E-06
   0      9    11.338   109.617    0.13E-03    0.20E-04    0.13E-06
   0      9    11.338    75.026    0.13E-03    0.20E-04    0.13E-06
   1      9    11.338    16.344    0.33E-04    0.24E-03    0.18E-06
   1      9    11.338    10.160    0.26E-04    0.19E-03    0.15E-06
|               ----> ADVICE to this user running VASP <----                  |
|     You enforced a specific xc type in the INCAR file but a different       |
|     type was found in the POTCAR file.                                      |
|     I HOPE YOU KNOW WHAT YOU ARE DOING!                                     |

  PAW_PBE Au 04Oct2007                  :

 POSCAR: Au
  positions in cartesian coordinates
 exchange correlation table for  LEXCH =       17
   RHO(1)=    0.500       N(1)  =     2000
   RHO(2)=  100.500       N(2)  =     4000

 VTST: version 4.1, (05/19/21)

 CHAIN: initializing optimizer

 OPT: Using VASP Conjugate-Gradient optimizer
 CHAIN: Read ICHAIN            0

 POSCAR: Au
  positions in cartesian coordinates

 ion  position               nearest neighbor table
   1  0.000  0.000  0.393-   7 2.88  12 2.88  31 2.88  32 2.88   2 2.88   6 2.88  67 2.88  42 2.88
                            37 2.88
   2  0.167  0.000  0.393-   7 2.88   8 2.88  32 2.88   1 2.88  37 2.88  33 2.88  68 2.88  38 2.88
                             3 2.88
   3  0.333  0.000  0.393-   9 2.88  33 2.88  34 2.88   4 2.88  39 2.88   8 2.88  69 2.88  38 2.88
                             2 2.88
   4  0.500  0.000  0.393-   9 2.88  10 2.88  34 2.88  35 2.88   3 2.88   5 2.88  70 2.88  40 2.88
                            39 2.88
   5  0.667  0.000  0.393-  10 2.88  11 2.88  35 2.88   4 2.88  40 2.88  36 2.88  71 2.88  41 2.88
                             6 2.88
   6  0.833  0.000  0.393-  12 2.88  31 2.88  36 2.88   1 2.88  42 2.88  11 2.88  72 2.88  41 2.88
                             5 2.88
   7  0.000  0.167  0.393-   1 2.88   2 2.88   8 2.88  12 2.88  37 2.88  18 2.88  43 2.88  48 2.88
                            13 2.88
   8  0.167  0.167  0.393-   2 2.88   7 2.88  38 2.88  43 2.88   3 2.88  13 2.88  44 2.88  14 2.88
                             9 2.88
   9  0.333  0.167  0.393-   3 2.88   4 2.88  10 2.88  39 2.88  45 2.88  44 2.88  15 2.88  14 2.88
                             8 2.88
  10  0.500  0.167  0.393-   4 2.88   5 2.88   9 2.88  11 2.88  40 2.88  15 2.88  45 2.88  46 2.88
                            16 2.88
  11  0.667  0.167  0.393-   5 2.88  10 2.88  41 2.88  46 2.88   6 2.88  16 2.88  47 2.88  17 2.88
                            12 2.88
  12  0.833  0.167  0.393-   1 2.88   6 2.88   7 2.88  42 2.88  48 2.88  47 2.88  18 2.88  17 2.88
                            11 2.88
  13  0.000  0.333  0.393-  19 2.88  24 2.88  14 2.88  18 2.88  49 2.88   8 2.88  43 2.88  54 2.88
                             7 2.88
  14  0.167  0.333  0.393-  19 2.88  20 2.88  13 2.88  49 2.88  50 2.88  44 2.88   8 2.88   9 2.88
                            15 2.88
  15  0.333  0.333  0.393-  51 2.88  21 2.88  16 2.88  10 2.88  20 2.88  45 2.88  50 2.88   9 2.88
                            14 2.88
  16  0.500  0.333  0.393-  21 2.88  22 2.88  15 2.88  17 2.88  52 2.88  11 2.88  46 2.88  51 2.88
                            10 2.88
  17  0.667  0.333  0.393-  22 2.88  23 2.88  16 2.88  52 2.88  53 2.88  47 2.88  11 2.88  12 2.88
                            18 2.88
  18  0.833  0.333  0.393-  54 2.88  24 2.88  13 2.88   7 2.88  23 2.88  48 2.88  53 2.88  12 2.88
                            17 2.88
  19  0.000  0.500  0.393-  13 2.88  14 2.88  25 2.88  30 2.88  20 2.88  24 2.88  49 2.88  55 2.88
                            60 2.88
  20  0.167  0.500  0.393-  14 2.88  25 2.88  26 2.88  19 2.88  55 2.88  15 2.88  50 2.88  56 2.88
                            21 2.88
  21  0.333  0.500  0.393-  15 2.88  16 2.88  27 2.88  22 2.88  57 2.88  26 2.88  51 2.88  56 2.88
                            20 2.88
  22  0.500  0.500  0.393-  16 2.88  17 2.88  27 2.88  28 2.88  21 2.88  23 2.88  52 2.88  57 2.88
                            58 2.88
  23  0.667  0.500  0.393-  17 2.88  28 2.88  29 2.88  22 2.88  58 2.88  18 2.88  53 2.88  59 2.88
                            24 2.88
  24  0.833  0.500  0.393-  13 2.88  18 2.88  30 2.88  19 2.88  60 2.88  29 2.88  54 2.88  59 2.88
                            23 2.88
  25  0.000  0.667  0.393-  19 2.88  20 2.88  26 2.88  30 2.88  55 2.88  36 2.88  61 2.88  66 2.88
                            31 2.88
  26  0.167  0.667  0.393-  20 2.88  25 2.88  56 2.88  61 2.88  21 2.88  31 2.88  62 2.88  32 2.88
                            27 2.88
  27  0.333  0.667  0.393-  21 2.88  22 2.88  28 2.88  57 2.88  63 2.88  62 2.88  33 2.88  32 2.88
                            26 2.88
  28  0.500  0.667  0.393-  22 2.88  23 2.88  27 2.88  29 2.88  58 2.88  33 2.88  63 2.88  64 2.88
                            34 2.88
  29  0.667  0.667  0.393-  23 2.88  28 2.88  59 2.88  64 2.88  24 2.88  34 2.88  65 2.88  35 2.88
                            30 2.88
  30  0.833  0.667  0.393-  19 2.88  24 2.88  25 2.88  60 2.88  66 2.88  65 2.88  36 2.88  35 2.88
                            29 2.88
  31  0.000  0.833  0.393-   1 2.88   6 2.88  32 2.88  36 2.88  67 2.88  26 2.88  61 2.88  72 2.88
                            25 2.88
  32  0.167  0.833  0.393-   1 2.88   2 2.88  31 2.88  67 2.88  68 2.88  62 2.88  26 2.88  27 2.88
                            33 2.88
  33  0.333  0.833  0.393-  69 2.88   3 2.88  34 2.88   2 2.88  28 2.88  63 2.88  68 2.88  27 2.88
                            32 2.88
  34  0.500  0.833  0.393-   3 2.88   4 2.88  33 2.88  35 2.88  70 2.88  29 2.88  64 2.88  69 2.88
                            28 2.88
  35  0.667  0.833  0.393-   4 2.88   5 2.88  34 2.88  70 2.88  71 2.88  65 2.88  29 2.88  30 2.88
                            36 2.88
  36  0.833  0.833  0.393-  72 2.88   6 2.88  31 2.88   5 2.88  25 2.88  66 2.88  71 2.88  30 2.88
                            35 2.88
  37  0.056  0.056  0.464-  43 2.88  38 2.88   2 2.88   7 2.88  48 2.88  68 2.88 104 2.88  73 2.88
                            74 2.88   1 2.88  67 2.88  42 2.88
  38  0.222  0.056  0.464-  43 2.88  44 2.88  37 2.88  39 2.88   8 2.88  74 2.88  69 2.88 105 2.88
                             2 2.88  75 2.88   3 2.88  68 2.88
  39  0.389  0.056  0.464-  44 2.88  45 2.88  38 2.88   9 2.88   3 2.88  75 2.88 106 2.88  76 2.88
                             4 2.88  70 2.88  69 2.88  40 2.88
  40  0.556  0.056  0.464-  46 2.88  41 2.88   5 2.88  10 2.88  45 2.88  71 2.88 107 2.88  76 2.88
                            77 2.88   4 2.88  70 2.88  39 2.88
  41  0.722  0.056  0.464-  46 2.88  47 2.88  40 2.88  42 2.88  11 2.88  77 2.88  72 2.88 108 2.88
                             5 2.88  78 2.88   6 2.88  71 2.88
  42  0.889  0.056  0.464-  47 2.88  48 2.88  41 2.88  12 2.88   6 2.88  78 2.88 103 2.88   1 2.88
                            73 2.88  72 2.88  67 2.88  37 2.88
  43  0.056  0.222  0.464-  37 2.88  38 2.88  49 2.88  44 2.88   8 2.88  74 2.88  54 2.88  13 2.88
                             7 2.88  79 2.88  80 2.88  48 2.88
  44  0.222  0.222  0.464-  38 2.88  39 2.88  49 2.88  50 2.88  43 2.88  45 2.88  75 2.88  80 2.88
                            14 2.88   9 2.88   8 2.88  81 2.88
  45  0.389  0.222  0.464-  39 2.88  50 2.88  51 2.88  44 2.88   9 2.88  76 2.88  81 2.88  40 2.88
                            15 2.88  10 2.88  82 2.88  46 2.88
  46  0.556  0.222  0.464-  40 2.88  41 2.88  52 2.88  47 2.88  11 2.88  77 2.88  51 2.88  16 2.88
                            10 2.88  82 2.88  83 2.88  45 2.88
  47  0.722  0.222  0.464-  41 2.88  42 2.88  52 2.88  53 2.88  46 2.88  48 2.88  78 2.88  83 2.88
                            17 2.88  12 2.88  11 2.88  84 2.88
  48  0.889  0.222  0.464-  42 2.88  53 2.88  54 2.88  47 2.88  12 2.88  73 2.88  84 2.88  37 2.88
                            18 2.88  79 2.88   7 2.88  43 2.88
  49  0.056  0.389  0.464-  43 2.88  44 2.88  50 2.88  14 2.88  13 2.88  80 2.88  19 2.88  85 2.88
                            86 2.88  60 2.88  55 2.88  54 2.88
  50  0.222  0.389  0.464-  44 2.88  45 2.88  49 2.88  51 2.88  14 2.88  81 2.88  86 2.88  55 2.88
                            20 2.88  15 2.88  87 2.88  56 2.88
  51  0.389  0.389  0.464-  15 2.88  45 2.88  50 2.88  82 2.88  87 2.88  46 2.88  56 2.88  21 2.88
                            16 2.88  88 2.88  57 2.88  52 2.88
  52  0.556  0.389  0.464-  46 2.88  47 2.88  53 2.88  17 2.88  16 2.88  83 2.88  22 2.88  88 2.88
                            89 2.88  58 2.88  57 2.88  51 2.88
  53  0.722  0.389  0.464-  47 2.88  48 2.88  52 2.88  54 2.88  17 2.88  84 2.88  89 2.88  58 2.88
                            23 2.88  18 2.88  90 2.88  59 2.88
  54  0.889  0.389  0.464-  18 2.88  48 2.88  53 2.88  79 2.88  90 2.88  43 2.88  59 2.88  24 2.88
                            85 2.88  13 2.88  60 2.88  49 2.88
  55  0.056  0.556  0.464-  61 2.88  56 2.88  20 2.88  25 2.88  50 2.88  66 2.88  86 2.88  19 2.88
                            91 2.88  92 2.88  49 2.88  60 2.88
  56  0.222  0.556  0.464-  61 2.88  62 2.88  55 2.88  57 2.88  26 2.88  92 2.88  51 2.88  87 2.88
                            20 2.88  21 2.88  93 2.88  50 2.88
  57  0.389  0.556  0.464-  62 2.88  63 2.88  56 2.88  27 2.88  21 2.88  93 2.88  88 2.88  22 2.88
                            94 2.88  51 2.88  52 2.88  58 2.88
[...]
  393                  map_gather                            0.721388                720   8
  394                  m_alltoallv_z                         0.585031                720   8
  395                  map_scatter                           0.787849                720   8
  396        hamilt_local                          6.108001                          720   3
  397          vhamil                                0.689795                        720   4
  398          kinhamil                              5.411245                        720   4
  399            fftext_mpi                            5.318402                      720   5
  400              fft3d_mpi                             5.110653                    720   6
  401                fftbas_mpi                            5.108163                  720   7
  402                  fftbas_plan_mpi                       5.105842                720   8
  403                    dfftw_execute                         2.614265             2160   9
  404                    map_backward                          2.093648             1440   9
  405                      map_gather                            0.718917            720  10
  406                      m_alltoallv_z                         0.520295            720  10
  407                      map_scatter                           0.840105            720  10
  408        redis_pw                              2.367155                         1464   3
  409          m_alltoall_d                          2.116359                       2160   4
  410        orth1                                 3.690674                          720   3
  411        m_sumb_d                              1.827934                           24   3
  412        shift_bands_between_low_high          0.000031                           24   3
  413        lincom                                5.483767                           24   3
  414      set_charge                           29.564299                             12   2
  415        soft_charge                           5.949513                           12   3
  416          fftwav_mpi                            5.072532                        600   4
  417            fft3d_mpi                             4.568148                      600   5
  418              fftbas_mpi                            4.565498                    600   6
  419                fftbas_plan_mpi                       4.563672                  600   7
  420                  dfftw_execute                         2.220505               1800   8
  421                  map_forward                           2.010463               1200   8
  422                    map_gather                            0.596594              600   9
  423                    m_alltoallv_z                         0.424733              600   9
  424                    map_scatter                           0.634916              600   9
  425          pw_charge                             0.533988                        600   4
  426          m_sumb_d                              0.252623                         12   4
  427          fft_gq                                0.066101                         12   4
  428            fft3d_mpi                             0.062407                       12   5
  429              fftbrc_mpi                            0.054627                     12   6
  430                fftbas_plan_mpi                       0.054594                   12   7
  431                  dfftw_execute                         0.014814                 36   8
  432                  map_backward                          0.032800                 24   8
  433                    map_gather                            0.008037               24   9
  434                    m_alltoallv_z                         0.023088               24   9
  435                    map_scatter                           0.001370               24   9
  436        m_sumb_d                              0.938015                           12   3
  437        depsum                                0.053966                           12   3
  438          m_sumb_d                              0.031448                         12   4
  439        augmentation_charge                   0.670866                           12   3
  440          m_sumb_d                              0.008374                         12   4
  441          fft3d_mpi                             0.071261                         12   4
  442            fftbrc_mpi                            0.068750                       12   5
  443              fftbas_plan_mpi                       0.068716                     12   6
  444                dfftw_execute                         0.010141                   36   7
  445                map_backward                          0.051206                   24   7
  446                  map_gather                            0.002817                 12   8
  447                  m_alltoallv_z                         0.045189                 12   8
  448                  map_scatter                           0.002986                 12   8

 Flat profile

 edwav                                5843.773032         955
 potlok                               1929.297137         981
 set_charge                           1773.923522         968
 lincom                               1127.273237        5798
 dfftw_execute                         851.613223      850044
 m_sumb_d                              488.634988      446228
 orth1                                 457.109404       90351
 m_alltoall_d                          446.520839      982799
 m_alltoallv_z                         397.969392      285297
 map_scatter                           255.814383      285297
 choleski                              247.864380        1930
 map_gather                            223.185371      285297
 ggaall_grid                           198.087288        1410
 fftbas_plan_mpi                       166.628087      283348
 fftwav_mpi                            126.706678      147018
 eddiag                                116.581061         513
 eccp                                  110.809882      113640
 map_forward                            86.575401      370894
 total_time                             74.349596           1
 racc0                                  51.587924       28997
 rpro1                                  49.497685       28697
 augmentation_charge                    47.741765         968
 pw_charge                              42.860654       48404
 crrexp_mul_work_add                    33.344697     4175568
 redis_pw                               30.997293      122587
 crrexp_mul_wave                        29.486607     5592528
 vhamil                                 29.084286       30497
 eddav                                  27.973752           5
 force_and_stress                       25.679454          13
 fftext_mpi                             23.976903       58517
 setdij_                                23.360547        1320
 w1_dscal                               18.914521       28020
 fft3d_mpi                              18.096875      283348
 phaser                                 16.437539        1282
 rpromu_gemm                             9.493208      389376
 m_bcast_z                               9.472167        2957
 ggemm                                   9.257197        1277
 orthch                                  8.323931         965
 lapack                                  6.641394         977
 rspher_all                              5.938940         170
 overl                                   5.152316       33522
 redis_proj                              4.561406      108416
 kinhamil                                3.956678       30497
 m_bcast_d                               3.731572        2988
 rpromu                                  3.214191        2704
 elmin_all                               2.506796          13
 forhar                                  2.027629          13
 forloc                                  2.014103          13
 map_backward                            1.922996      195802
 depsum                                  1.818666         968
 soft_charge                             1.790868         968
 rsp                                     1.335138        1975
 stufak                                  1.297632          13
 densta                                  0.802716         979
 fftbas_mpi                              0.653399      205535
 pothar                                  0.580614         981
 inisym                                  0.478422           1
 w1_copy                                 0.337173        2931
 strnlr                                  0.332632          13
 fft_gq                                  0.309262         968
 hamilt_local                            0.281631       29520
 set_dd_paw                              0.255687         994
 fftbrc_mpi                              0.241852       77813
 rpro_isp                                0.134919         338
 strkin                                  0.130842          13
 fornlr                                  0.110430          13
 setup_precond                           0.089050         300
 rcp                                     0.088660        1975
 apply_precond                           0.084269         677
 posmap                                  0.064250           2
 overl1                                  0.056873         977
 wavpre_noio                             0.043542          12
 strelo                                  0.032956          13
 strehar                                 0.029474          13
 fewald                                  0.026492        1975
 redis_pw_all                            0.018038         955
 hamiltmu                                0.016760         977
 newband                                 0.014586         987
 raccmu_                                 0.009604         977
 redis_pw_over_bands                     0.004046         980
 w1_projall                              0.003408         677
 fordep                                  0.002978          13
 set_rsgf_all                            0.001744         994
 potlok_metagga                          0.001326         981
 truncate_high_frequency_w1              0.001213        1277
 brgrid                                  0.000809           1
 proall                                  0.000527          13
 crpa_reader                             0.000237           1
 set_dd_magatom                          0.000176          26
 shift_bands_between_low_high            0.000061          50
 rotate_active_occupied_orbital          0.000057          13
 vectorpot                               0.000028           1
  summed up times    15481.4549701214

 Accumulative profile

 total_time                          15481.454970           1
 elmin_all                           14987.990167          13
 edwav                                9673.813346         955
 potlok                               2554.082529         981
 set_charge                           2392.851473         968
 fft3d_mpi                            2002.700978      283348
 fftbas_plan_mpi                      1983.708851      283348
 fftbas_mpi                           1572.436303      205535
 fftwav_mpi                           1276.499481      147018
 lincom                               1127.273237        5798
 orthch                                979.673665         965
 dfftw_execute                         851.613223      850044
 map_forward                           668.599010      370894
 m_sumb_d                              488.634988      446228
 soft_charge                           484.162814         968
 eddiag                                461.147079         513
 orth1                                 457.109404       90351
 fftext_mpi                            447.492026       58517
 m_alltoall_d                          446.520839      982799
 fftbrc_mpi                            412.167799       77813
 m_alltoallv_z                         397.969392      285297
 redis_pw                              321.782531      122587
 map_backward                          296.868531      195802
 map_scatter                           255.814383      285297
 hamilt_local                          252.639760       29520
 choleski                              247.864380        1930
 kinhamil                              231.718493       30497
 map_gather                            223.185371      285297
 ggaall_grid                           198.087288        1410
 redis_proj                            160.297007      108416
 force_and_stress                      154.752381          13
 eccp                                  117.787881      113640
 rpro_isp                              109.124762         338
 eddav                                  96.885813           5
 racc0                                  91.846538       28997
 strnlr                                 83.169834          13
 rpro1                                  77.075382       28697
 redis_pw_over_bands                    69.799670         980
 redis_pw_all                           69.795624         955
 augmentation_charge                    53.431422         968
 pw_charge                              42.860654       48404
 crrexp_mul_work_add                    33.344697     4175568
 crrexp_mul_wave                        29.486607     5592528
 vhamil                                 29.084286       30497
 fornlr                                 27.743138          13
 setdij_                                26.726849        1320
 rpromu                                 21.308929        2704
 w1_dscal                               18.914521       28020
 phaser                                 16.437539        1282
 hamiltmu                               11.551857         977
 set_dd_paw                             11.274297         994
 rpromu_gemm                             9.493208      389376
 m_bcast_z                               9.472167        2957
 ggemm                                   9.257197        1277
 proall                                  8.770622          13
 lapack                                  6.641394         977
 rspher_all                              5.938940         170
 fft_gq                                  5.317681         968
 overl                                   5.152316       33522
 depsum                                  4.368885         968
 densta                                  4.213005         979
 m_bcast_d                               3.731572        2988
 newband                                 3.519784         987
 raccmu_                                 3.090448         977
 forloc                                  2.076887          13
 forhar                                  2.068458          13
 w1_projall                              1.823666         677
 fordep                                  1.528110          13
 fewald                                  1.500157        1975
 rsp                                     1.335138        1975
 stufak                                  1.297632          13
 wavpre_noio                             1.241475          12
 pothar                                  1.000974         981
 inisym                                  0.542672           1
 w1_copy                                 0.337173        2931
 strkin                                  0.143858          13
 setup_precond                           0.103010         300
 rcp                                     0.088660        1975
 apply_precond                           0.084269         677
 posmap                                  0.064250           2
 overl1                                  0.056873         977
 strelo                                  0.044835          13
 strehar                                 0.040835          13
 set_rsgf_all                            0.001744         994
 potlok_metagga                          0.001326         981
 truncate_high_frequency_w1              0.001213        1277
 brgrid                                  0.000809           1
 crpa_reader                             0.000237           1
 set_dd_magatom                          0.000176          26
 shift_bands_between_low_high            0.000061          50
 rotate_active_occupied_orbital          0.000057          13
 vectorpot                               0.000028           1

Profiling took  11.523319  5.213465  0.009013  0.007966 seconds
Profiling took  13.222120 seconds