 vasp.6.3.2 27Jun22 (build Apr 26 2023 23:54:53) gamma-only

 executed on           IFC15_impi date 2023.06.12  11:17:44

 INCAR:
   ENCUT = 500.000000
   SIGMA = 0.010000
   EDIFF = 1.00e-05
   ALGO = A
   ISMEAR = 0
   NELM = 200
   NCORE = 16
   LCHARG = .FALSE.
   LWAVE = .FALSE.
   LREAL = Auto
   IBRION = 2
   EDIFFG = -0.05
   GGA = BF
   LUSE_VDW = .TRUE.
   ZAB_VDW = -1.8867
   LBEEFENS = .TRUE.
   DIPOL = 0.5 0.5 0.65
   IDIPOL = 3
   LDIPOL = .TRUE.

 POTCAR:    PAW_PBE Au 04Oct2007
 POTCAR:    PAW_PBE O 08Apr2002
 POTCAR:    PAW_PBE Sr_sv 07Sep2000
 POTCAR:    PAW_PBE Ti_sv 26Sep2005
|               ----> ADVICE to this user running VASP <----                  |
|     You have switched on vdW-DFT.                                           |
|     This routine was written and supplied by Jiri Klimes. We recommend      |
|     that you carefully read and cite the following publications:            |
|       J. Klimes, D.R. Bowler, A. Michelides                                 |
|          J. Phys.: Cond Matt. 22 022201 (2010)                              |
|       J. Klimes, D.R. Bowler, A. Michelides                                 |
|          Phys. Rev. B. 83, 195131 (2011)                                    |
|     and references therein.                                                 |

   TITEL  = PAW_PBE Au 04Oct2007
   POMASS =  196.966; ZVAL   =   11.000    mass and valenz
   ENMAX  =  229.943; ENMIN  =  172.457 eV

   TITEL  = PAW_PBE O 08Apr2002
   POMASS =   16.000; ZVAL   =    6.000    mass and valenz
   ENMAX  =  400.000; ENMIN  =  300.000 eV

   TITEL  = PAW_PBE Sr_sv 07Sep2000
   POMASS =   87.620; ZVAL   =   10.000    mass and valenz
   ENMAX  =  229.353; ENMIN  =  172.014 eV

   TITEL  = PAW_PBE Ti_sv 26Sep2005
   POMASS =   47.880; ZVAL   =   12.000    mass and valenz
   ENMAX  =  274.610; ENMIN  =  205.957 eV

 Optimization of the real space projectors (new method)

 maximal supplied QI-value         = 15.12
 optimisation between [QCUT,QGAM] = [ 11.34, 22.83] = [ 36.00,145.93] Ry
 Optimized for a Real-space Cutoff    1.39 Angstroem

   l    n(q)    QCUT    max X(q) W(low)/X(q) W(high)/X(q)  e(spline)
   2      9    11.338    60.898    0.39E-03    0.42E-03    0.21E-06
   2      9    11.338    58.894    0.40E-03    0.42E-03    0.22E-06
   0      9    11.338   109.617    0.13E-03    0.20E-04    0.13E-06
   0      9    11.338    75.026    0.13E-03    0.20E-04    0.13E-06
   1      9    11.338    16.344    0.33E-04    0.24E-03    0.18E-06
   1      9    11.338    10.160    0.26E-04    0.19E-03    0.15E-06
 Optimization of the real space projectors (new method)

[...]

   l    n(q)    QCUT    max X(q) W(low)/X(q) W(high)/X(q)  e(spline)
   0     11    11.338    11.565    0.26E-04    0.80E-05    0.70E-07
   0     11    11.338    10.214    0.41E-04    0.15E-04    0.15E-06
   1     10    11.338   189.983    0.18E-03    0.52E-04    0.42E-06
   1     10    11.338   193.105    0.19E-03    0.52E-04    0.42E-06
   2     10    11.338   115.941    0.22E-03    0.42E-03    0.43E-06
   2     10    11.338    76.444    0.21E-03    0.41E-03    0.42E-06
 Optimization of the real space projectors (new method)

 maximal supplied QI-value         = 16.25
 optimisation between [QCUT,QGAM] = [ 11.38, 22.75] = [ 36.24,144.96] Ry
 Optimized for a Real-space Cutoff    1.27 Angstroem

   l    n(q)    QCUT    max X(q) W(low)/X(q) W(high)/X(q)  e(spline)
   0      9    11.376    12.277    0.53E-04    0.25E-04    0.25E-07
   0      9    11.376    11.419    0.89E-04    0.67E-05    0.35E-07
   1      8    11.376     4.010    0.13E-03    0.11E-03    0.29E-07
   1      8    11.376     6.182    0.94E-04    0.19E-03    0.11E-06
   2      8    11.376    47.177    0.13E-03    0.88E-03    0.24E-06
   2      8    11.376    42.437    0.13E-03    0.86E-03    0.23E-06
|               ----> ADVICE to this user running VASP <----                  |
|     You enforced a specific xc type in the INCAR file but a different       |
|     type was found in the POTCAR file.                                      |
|     I HOPE YOU KNOW WHAT YOU ARE DOING!                                     |

  PAW_PBE Au 04Oct2007                  :
  PAW_PBE O 08Apr2002                   :
  PAW_PBE Sr_sv 07Sep2000               :
  PAW_PBE Ti_sv 26Sep2005               :

 POSCAR: Au  O Sr Ti
  positions in cartesian coordinates
 exchange correlation table for  LEXCH =       17
   RHO(1)=    0.500       N(1)  =     2000
   RHO(2)=  100.500       N(2)  =     4000

 ion  position               nearest neighbor table
   1  0.719  0.525  0.754-  16 2.72  15 2.72  14 2.78   2 2.82  44 2.83  29 2.97  46 3.07
   2  0.626  0.566  0.704-  84 2.08  15 2.81   1 2.82  46 2.86  48 2.87  12 2.92  16 2.93  36 3.09
                            11 3.30   5 3.53 141 3.71
   3  0.719  0.259  0.692- 104 2.07  73 2.08  32 2.65  43 2.78  27 2.84 161 3.05 131 4.02 132 4.04

   4  0.288  0.745  0.699- 119 2.05  86 2.06   9 2.77  23 2.80  50 3.09  42 3.50  45 3.50 129 4.27
                           133 4.30
   5  0.515  0.604  0.777-  26 2.69  48 2.74  13 2.84  12 2.90  47 2.91  39 2.94  16 3.00   6 3.12
                            49 3.41  31 3.45   2 3.53
   6  0.577  0.726  0.792-  36 2.74  18 2.74  17 2.77  47 2.81  13 2.99   5 3.12  48 3.13  16 3.50

   7  0.550  0.384  0.830-  10 2.76  33 2.80  29 2.86  20 2.86  31 2.97  34 2.98  12 3.04  41 3.41

[...]

  16  0.637  0.583  0.800-   1 2.72  36 2.78  47 2.78  31 2.82   2 2.93   5 3.00  12 3.01  29 3.22
                             6 3.50
  17  0.594  0.785  0.712-  77 2.08   6 2.77  28 2.79  48 2.94  18 2.97  36 3.13 140 4.17 145 4.31

[...]

  32  0.664  0.194  0.752-   3 2.65  10 2.79  25 2.87  27 3.43  43 3.49
  33  0.473  0.451  0.879-  31 2.77  20 2.78  39 2.78   7 2.80  38 2.82
  34  0.516  0.377  0.734-  12 2.80  41 2.81  49 2.86  27 2.86  11 2.90   7 2.98  37 3.09  20 3.17
                            10 3.27  46 3.58 136 4.19
  35  0.284  0.337  0.703-  87 2.06  21 2.78  40 2.83  37 2.91   8 3.06 130 3.54 139 4.10
  36  0.670  0.681  0.749-  28 2.64  15 2.68   6 2.74  16 2.78   2 3.09  17 3.13  48 3.23
  37  0.398  0.383  0.691- 112 2.03  99 2.14  21 2.77  35 2.91  19 2.91  40 2.99  49 3.04  34 3.09
                           130 3.40  11 3.58  22 3.59 136 3.79
  38  0.376  0.492  0.834-  24 2.81  33 2.82  30 2.84  49 2.84  40 2.85  39 2.90  20 3.03
  39  0.464  0.574  0.863-  33 2.78  30 2.78  47 2.85  13 2.89  38 2.90  31 2.91   5 2.94
  40  0.327  0.414  0.770-  21 2.82  35 2.83  38 2.85  24 2.87   8 2.94  20 2.98  19 2.99  37 2.99
                            49 3.09
  41  0.487  0.268  0.775-  22 2.74  10 2.79  34 2.81  25 2.84  21 2.85  20 2.94   7 3.41
  42  0.430  0.699  0.699-  76 2.03  26 2.73  23 2.76  18 2.82  50 2.84  48 2.91   4 3.50 146 3.97
                           129 4.18
  43  0.700  0.346  0.757-  27 2.78   3 2.78  10 2.80  44 2.81  14 2.88  29 2.90  46 3.02  32 3.49

  44  0.774  0.428  0.796-  14 2.72  43 2.81   1 2.83  29 2.85
  45  0.255  0.592  0.695-  85 2.04 119 2.10   9 2.70   8 2.83  24 2.89  19 3.00   4 3.50 129 3.61
                           134 3.70
  46  0.647  0.440  0.698-  89 2.19  14 2.79  27 2.83   2 2.86  12 2.99  43 3.02   1 3.07  11 3.33
                            29 3.45 131 3.49  34 3.58
  47  0.566  0.641  0.861-  16 2.78   6 2.81  39 2.85  13 2.87   5 2.91  31 2.92
  48  0.548  0.664  0.702-  90 2.11   5 2.74   2 2.87  26 2.89  42 2.91  17 2.94   6 3.13  36 3.23
                            18 3.45 146 3.51 141 4.37
  49  0.443  0.475  0.756-  38 2.84  12 2.84  26 2.85  34 2.86  19 2.89  11 2.90  20 2.92  37 3.04
                            40 3.09   5 3.41
  50  0.373  0.735  0.777-   9 2.75  23 2.78  13 2.81  42 2.84  18 2.86  30 2.92   4 3.09
  51  1.000  0.498  0.594- 170 1.94 164 1.95 142 2.88 143 3.20
  52  0.999  0.754  0.592- 165 1.94 167 1.95 127 2.84 143 3.37
  53  0.335  0.254  0.593- 157 1.90 155 2.06 130 2.68 128 3.06
  54  0.334  1.000  0.592- 156 2.00 154 2.04 133 2.72 128 2.75
  55  1.000  0.998  0.593- 147 2.00 166 2.00 127 2.89 123 2.89
  56  0.001  0.250  0.592- 169 1.95 163 1.99 142 2.94 123 2.95
  57  0.334  0.497  0.591- 168 1.85 150 2.17 130 2.75 129 2.83
  58  0.335  0.739  0.592- 158 1.93 151 2.05 129 2.59 133 3.13
  59  0.663  0.247  0.591- 152 1.88 161 2.15 131 2.79 132 2.81
  60  0.666  0.000  0.592- 153 2.01 162 2.02 140 2.70 132 2.83
  61  0.666  0.742  0.590- 148 1.96 160 2.05 141 2.58 140 3.14
  62  0.667  0.493  0.591- 149 1.81 159 2.13 131 2.71 141 2.98
  63  0.167  0.998  0.592- 154 1.97 166 2.02 138 2.91 135 2.93
  64  0.169  0.249  0.593- 155 1.94 163 2.03 139 2.77 138 2.95
  65  0.171  0.750  0.595- 151 1.87 165 2.16 134 2.76 135 2.83
  66  0.165  0.504  0.588- 150 1.83 164 2.05 134 2.80 139 3.00
  67  0.498  0.504  0.609- 168 2.11  11 2.16 149 2.24 146 2.74 136 3.00
  68  0.499  0.253  0.590- 157 1.99 152 2.05 136 2.64 137 2.96
  69  0.500  1.000  0.591- 156 2.00 153 2.00 137 2.76 145 2.81
  70  0.753  0.693  0.658-  28 2.05  15 2.11 160 2.40 126 3.03 141 3.19
  71  0.749  0.937  0.640- 162 1.80 125 2.49 140 2.53
  72  0.253  0.186  0.641- 155 1.74 128 2.52 138 2.55
  73  0.746  0.194  0.647- 161 1.99   3 2.08 132 2.67 144 2.72
  74  0.756  0.436  0.639- 159 1.97  14 2.01 124 2.60 131 2.81
  75  0.417  0.935  0.640- 156 1.79 145 2.52 133 2.57
  76  0.422  0.676  0.634- 158 2.03  42 2.03 146 2.55 129 2.63
  77  0.590  0.811  0.646- 148 1.94  17 2.08 140 2.64 145 2.80
  78  0.916  0.062  0.641- 147 1.80 144 2.49 123 2.50
  79  0.914  0.561  0.643- 170 1.80 143 2.45 126 2.55
  80  0.915  0.312  0.639- 169 1.80 142 2.50 124 2.53
  81  0.914  0.812  0.642- 167 1.79 125 2.50 127 2.51
  82  0.582  0.066  0.640- 153 1.79 132 2.51 137 2.52
  83  0.583  0.319  0.634- 152 1.96  27 2.04 136 2.54 131 2.67
  84  0.593  0.564  0.640- 149 1.98   2 2.08 141 2.63 146 2.85
  85  0.248  0.574  0.629- 150 1.99  45 2.04 129 2.54 134 2.56
  86  0.261  0.798  0.647- 151 1.96   4 2.06 133 2.84 135 2.91
  87  0.250  0.316  0.641- 155 1.94  35 2.06 139 2.59 130 2.65
  88  0.251  0.059  0.642- 154 1.79 128 2.49 138 2.50
  89  0.582  0.438  0.646- 149 2.11  11 2.11  46 2.19 136 2.86 131 3.00
  90  0.580  0.685  0.638- 148 1.87  48 2.11 146 2.61 141 2.76
  91  0.917  0.187  0.641- 169 1.79 144 2.49 123 2.52
  92  0.582  0.936  0.639- 153 1.80 145 2.50 140 2.51
  93  0.830  0.750  0.593- 160 1.86 167 2.10 126 2.79 125 2.89
  94  0.832  0.248  0.591- 161 1.84 169 2.12 124 2.81 144 2.87
  95  0.833  0.504  0.590- 159 1.83 170 2.07 126 2.77 124 2.96
  96  0.832  0.002  0.592- 162 1.99 147 2.02 144 2.86 125 2.93
  97  0.501  0.756  0.593- 148 1.99 158 2.01 145 2.73 146 2.94
  98  0.418  0.065  0.640- 156 1.80 128 2.51 137 2.54
  99  0.427  0.305  0.655-  37 2.14  22 2.14 157 2.32 136 2.94 130 3.39
 100  0.412  0.812  0.640- 158 1.95  23 2.08 133 2.60 145 2.69
 101  0.400  0.551  0.652-  19 2.10  26 2.12 168 2.16 129 2.80 146 3.44
 102  0.752  0.571  0.634- 159 1.92  15 2.10 126 2.61 141 2.67
 103  0.741  0.810  0.640- 160 1.98  28 2.05 140 2.59 125 2.68
 104  0.747  0.313  0.640- 161 2.00   3 2.07 131 2.62 124 2.74
 105  0.748  0.067  0.639- 162 1.79 132 2.47 144 2.48
 106  0.084  0.312  0.640- 163 1.80 142 2.49 139 2.51
[...]
  311          rspher_all                            0.179469                          9   4
  312          phaser                                0.000006                          9   4
  313          rpro_isp                              4.432783                          9   4
  314            fftwav_mpi                            3.990680                      513   5
  315              fft3d_mpi                             3.361642                    513   6
  316                fftbrc_mpi                            2.678786                  513   7
  317                  fftbas_plan_mpi                       2.677220                513   8
  318                    dfftw_execute                         1.335222             1539   9
  319                    map_forward                           1.051978             1026   9
  320                      map_gather                            0.125061            513  10
  321                      m_alltoallv_z                         0.296188            513  10
  322                      map_scatter                           0.196849            513  10
  323            rpromu                                0.436122                      135   5
  324              rpromu_gemm                           0.139591                  20655   6
  325              m_sumb_d                              0.044710                    513   6
  326          m_sumb_d                              0.041225                          1   4
  327        m_sumb_d                              0.002355                            7   3
  328        fft3d_mpi                             0.641737                           71   3
  329          fftbrc_mpi                            0.599111                         71   4
  330            fftbas_plan_mpi                       0.598823                       71   5
  331              dfftw_execute                         0.175519                    213   6
  332              map_forward                           0.152865                     70   6
  333                map_gather                            0.011625                   35   7
  334                m_alltoallv_z                         0.106705                   35   7
  335                map_scatter                           0.033875                   35   7
  336              map_backward                          0.224479                     72   6
  337                map_gather                            0.040171                   36   7
  338                m_alltoallv_z                         0.165282                   36   7
  339                map_scatter                           0.018337                   36   7
  340        ggaall_grid                           0.356382                            1   3
  341        forhar                                0.313184                            1   3
  342          m_sumb_d                              0.000170                          1   4
  343        strehar                               0.014804                            1   3
  344          m_sumb_d                              0.004146                          1   4
  345        m_bcast_d                             0.001239                            2   3
  346      potlok                               12.449851                              1   2
  347        fft3d_mpi                             3.453451                          329   3
  348          fftbrc_mpi                            3.264900                        329   4
  349            fftbas_plan_mpi                       3.263756                      329   5
  350              dfftw_execute                         0.789165                    987   6
  351              map_forward                           0.843423                    330   6
  352                map_gather                            0.068606                  166   7
  353                m_alltoallv_z                         0.613904                  166   7
  354                map_scatter                           0.157595                  166   7
  355              map_backward                          1.413991                    328   6
  356                map_gather                            0.179026                  164   7
  357                m_alltoallv_z                         1.149369                  164   7
  358                map_scatter                           0.082280                  164   7
  359        ggaall_grid                           4.815446                           33   3
  360        m_sumb_d                              0.026154                          168   3
  361        fewald                                0.001647                            2   3
  362          rsp                                   0.001431                          2   4
  363          rcp                                   0.000194                          2   4
  364        pothar                                0.001575                            1   3
  365          m_sumb_d                              0.000594                          1   4
  366        m_bcast_d                             0.006216                            1   3
  367      potlok_metagga                        0.000007                              1   2
  368      set_dd_magatom                        0.000002                              1   2
  369      set_dd_paw                            0.011923                              1   2
  370        set_rsgf_all                          0.000001                            1   3
  371        m_sumb_d                              0.011556                            7   3

 Flat profile

 potlok                                400.671957         114
 edwav                                 167.011761         112
 dfftw_execute                          84.955044      102003
 m_alltoallv_z                          52.491917       34228
 ggaall_grid                            46.515865         147
 total_time                             44.011542           1
 m_alltoall_d                           43.293336      116839
 fft3d_mpi                              36.586399       34001
 lincom                                 30.411450         343
 fftwav_mpi                             21.968132       17627
 orth1                                  21.920380        9669
 fftbas_plan_mpi                        20.192300       34001
 m_sumb_d                               19.332299       57923
 map_scatter                            15.766113       34228
 map_forward                            15.747211       44018
 map_gather                             14.776211       34228
 eccp                                   14.713517       13053
 eddav                                  10.690605           5
 vhamil                                  7.359085        4306
 pw_charge                               6.674989        5424
 m_bcast_z                               5.560257         969
 racc0                                   5.087743        4249
 choleski                                4.448890         113
 rpro1                                   4.294141        3964
 w1_dscal                                3.632438        3192
 force_and_stress                        3.482005           1
 ggemm                                   2.904259        1342
 augmentation_charge                     1.966737         113
 eddiag                                  1.857418          57
 setdij_                                 1.825467         141
 redis_pw                                1.572830       16005
 lapack                                  1.537491        1057
 fftext_mpi                              1.270166        7498
 m_bcast_d                               0.978353        3290
 elmin_all                               0.765207           1
 redis_proj                              0.405666       14482
 rpromu                                  0.363788         195
 kinhamil                                0.314092        4306
 forhar                                  0.313014           1
 forloc                                  0.309702           1
 soft_charge                             0.305089         113
 rspher_all                              0.274430          14
 map_backward                            0.241764       23984
 orthch                                  0.237273         113
 overl                                   0.214516        5247
 rpromu_gemm                             0.212938       29835
 stufak                                  0.193433           1
 w1_copy                                 0.186540        3171
 rsp                                     0.155213         229
 pothar                                  0.117107         114
 fftbrc_mpi                              0.111839       34001
 densta                                  0.097442         124
 apply_precond                           0.075071         772
 set_charge                              0.073775         113
 inisym                                  0.063176           1
 depsum                                  0.049909         113
 setup_precond                           0.042336         285
 fft_gq                                  0.040143         113
 hamilt_local                            0.031132        3249
 overl1                                  0.029704        1057
 set_dd_paw                              0.026888         115
 hamiltmu                                0.017132        1057
 rpro_isp                                0.016658          13
 rcp                                     0.014724         229
 newband                                 0.012956        1062
 raccmu_                                 0.011714        1057
 strehar                                 0.010658           1
 fewald                                  0.008429         229
 strelo                                  0.008316           1
 strnlr                                  0.007590           1
 strkin                                  0.004376           1
 w1_projall                              0.003964         772
 fornlr                                  0.002078           1
 brgrid                                  0.001915           1
 truncate_high_frequency_w1              0.001321        1342
 redis_pw_all                            0.000830         112
 potlok_metagga                          0.000531         114
 redis_pw_over_bands                     0.000512         113
 crpa_reader                             0.000274           1
 set_rsgf_all                            0.000233         115
 fordep                                  0.000177           1
 posmap                                  0.000063           2
 phaser                                  0.000046          74
 vectorpot                               0.000033           1
 proall                                  0.000024           1
 rotate_active_occupied_orbital          0.000023           1
 set_dd_magatom                          0.000014           2
 shift_bands_between_low_high            0.000002           1
  summed up times    1120.88408994675

 Accumulative profile

 total_time                           1120.884090           1
 elmin_all                            1045.677182           1
 potlok                                528.899913         114
 edwav                                 387.229877         112
 fft3d_mpi                             240.868799       34001
 fftbrc_mpi                            204.282400       34001
 fftbas_plan_mpi                       204.170561       34001
 fftwav_mpi                            139.708765       17627
 dfftw_execute                          84.955044      102003
 map_forward                            60.002725       44018
 set_charge                             53.622213         113
 m_alltoallv_z                          52.491917       34228
 eddav                                  52.013758           5
 soft_charge                            50.354437         113
 ggaall_grid                            46.515865         147
 m_alltoall_d                           43.293336      116839
 fftext_mpi                             41.126210        7498
 map_backward                           39.020492       23984
 eddiag                                 32.021152          57
 lincom                                 30.411450         343
 orthch                                 29.255352         113
 redis_pw                               27.845414       16005
 kinhamil                               23.452638        4306
 hamilt_local                           23.231530        3249
 orth1                                  21.920380        9669
 m_sumb_d                               19.332299       57923
 redis_proj                             17.426417       14482
 map_scatter                            15.766113       34228
 eccp                                   15.445553       13053
 map_gather                             14.776211       34228
 force_and_stress                       11.778253           1
 hamiltmu                                9.088008        1057
 vhamil                                  7.359085        4306
 pw_charge                               6.674989        5424
 rpro_isp                                6.463692          13
 racc0                                   6.227691        4249
 m_bcast_z                               5.560257         969
 rpro1                                   4.889590        3964
 strnlr                                  4.661073           1
 choleski                                4.448890         113
 redis_pw_over_bands                     3.896172         113
 redis_pw_all                            3.895660         112
 w1_dscal                                3.632438        3192
 augmentation_charge                     3.087693         113
 newband                                 2.997363        1062
 ggemm                                   2.904259        1342
 setdij_                                 2.187820         141
 fornlr                                  1.566966           1
 lapack                                  1.537491        1057
 raccmu_                                 1.459552        1057
 set_dd_paw                              1.324515         115
 m_bcast_d                               0.978353        3290
 w1_projall                              0.958639         772
 fft_gq                                  0.742340         113
 rpromu                                  0.655506         195
 proall                                  0.533907           1
 densta                                  0.510819         124
 forhar                                  0.313184           1
 forloc                                  0.310265           1
 rspher_all                              0.274430          14
 overl                                   0.214516        5247
 rpromu_gemm                             0.212938       29835
 stufak                                  0.193433           1
 w1_copy                                 0.186540        3171
 fewald                                  0.182140         229
 pothar                                  0.178898         114
 rsp                                     0.155213         229
 depsum                                  0.106308         113
 fordep                                  0.095035           1
 apply_precond                           0.075071         772
 inisym                                  0.063239           1
 setup_precond                           0.050629         285
 overl1                                  0.029704        1057
 strehar                                 0.014804           1
 rcp                                     0.014724         229
 strelo                                  0.010709           1
 strkin                                  0.004931           1
 brgrid                                  0.001915           1
 truncate_high_frequency_w1              0.001321        1342
 potlok_metagga                          0.000531         114
 crpa_reader                             0.000274           1
 set_rsgf_all                            0.000233         115
 posmap                                  0.000063           2
 phaser                                  0.000046          74
 vectorpot                               0.000033           1
 rotate_active_occupied_orbital          0.000023           1
 set_dd_magatom                          0.000014           2
 shift_bands_between_low_high            0.000002           1

Profiling took   0.930214  0.291002  0.009024  0.008236 seconds
Profiling took   1.218962 seconds