 vasp.6.3.2 27Jun22 (build Jan 03 2024 23:25:20) gamma-only

 executed on           IFC15_impi date 2024.06.05  05:38:59

 INCAR:
   ENCUT = 500.000000
   SIGMA = 0.010000
   EDIFF = 1.00e-05
   ALGO = A
   ISMEAR = 0
   NELM = 200
   NSW = 999
   NCORE = 32
   LCHARG = .TRUE.
   LWAVE = .TRUE.
   LREAL = Auto
   IBRION = 5
   POTIM = 0.015
   NFREE = 2
   ISYM = 0
   EDIFFG = -0.05
   GGA = BF
   LUSE_VDW = .TRUE.
   ZAB_VDW = -1.8867
   LBEEFENS = .TRUE.
   DIPOL = 0.5 0.5 0.65
   IDIPOL = 3
   LDIPOL = .TRUE.

 POTCAR:    PAW_PBE Au 04Oct2007
 POTCAR:    PAW_PBE O 08Apr2002
 POTCAR:    PAW_PBE Sr_sv 07Sep2000
 POTCAR:    PAW_PBE Ti_sv 26Sep2005
 POTCAR:    PAW_PBE H 15Jun2001
|               ----> ADVICE to this user running VASP <----                  |
|     You have switched on vdW-DFT.                                           |
|     This routine was written and supplied by Jiri Klimes. We recommend      |
|     that you carefully read and cite the following publications:            |
|       J. Klimes, D.R. Bowler, A. Michelides                                 |
|          J. Phys.: Cond Matt. 22 022201 (2010)                              |
|       J. Klimes, D.R. Bowler, A. Michelides                                 |
|          Phys. Rev. B. 83, 195131 (2011)                                    |
|     and references therein.                                                 |

   TITEL  = PAW_PBE Au 04Oct2007
   POMASS =  196.966; ZVAL   =   11.000    mass and valenz
   ENMAX  =  229.943; ENMIN  =  172.457 eV

   TITEL  = PAW_PBE O 08Apr2002
   POMASS =   16.000; ZVAL   =    6.000    mass and valenz
   ENMAX  =  400.000; ENMIN  =  300.000 eV

   TITEL  = PAW_PBE Sr_sv 07Sep2000
   POMASS =   87.620; ZVAL   =   10.000    mass and valenz
   ENMAX  =  229.353; ENMIN  =  172.014 eV

   TITEL  = PAW_PBE Ti_sv 26Sep2005
   POMASS =   47.880; ZVAL   =   12.000    mass and valenz
   ENMAX  =  274.610; ENMIN  =  205.957 eV

   TITEL  = PAW_PBE H 15Jun2001
   POMASS =    1.000; ZVAL   =    1.000    mass and valenz
   ENMAX  =  250.000; ENMIN  =  200.000 eV

 Optimization of the real space projectors (new method)

 maximal supplied QI-value         = 15.12
 optimisation between [QCUT,QGAM] = [ 11.34, 22.83] = [ 36.00,145.93] Ry
 Optimized for a Real-space Cutoff    1.39 Angstroem

   l    n(q)    QCUT    max X(q) W(low)/X(q) W(high)/X(q)  e(spline)
   2      9    11.338    60.898    0.39E-03    0.42E-03    0.21E-06
   2      9    11.338    58.894    0.40E-03    0.42E-03    0.22E-06
   0      9    11.338   109.617    0.13E-03    0.20E-04    0.13E-06
   0      9    11.338    75.026    0.13E-03    0.20E-04    0.13E-06
   1      9    11.338    16.344    0.33E-04    0.24E-03    0.18E-06
   1      9    11.338    10.160    0.26E-04    0.19E-03    0.15E-06
 Optimization of the real space projectors (new method)

[...]

   l    n(q)    QCUT    max X(q) W(low)/X(q) W(high)/X(q)  e(spline)
   0      9    11.376    12.277    0.53E-04    0.25E-04    0.25E-07
   0      9    11.376    11.419    0.89E-04    0.67E-05    0.35E-07
   1      8    11.376     4.010    0.13E-03    0.11E-03    0.29E-07
   1      8    11.376     6.182    0.94E-04    0.19E-03    0.11E-06
   2      8    11.376    47.177    0.13E-03    0.88E-03    0.24E-06
   2      8    11.376    42.437    0.13E-03    0.86E-03    0.23E-06
 Optimization of the real space projectors (new method)

 maximal supplied QI-value         = 34.20
 optimisation between [QCUT,QGAM] = [ 11.29, 22.57] = [ 35.68,142.71] Ry
 Optimized for a Real-space Cutoff    1.16 Angstroem

   l    n(q)    QCUT    max X(q) W(low)/X(q) W(high)/X(q)  e(spline)
   0      8    11.287    19.460    0.40E-03    0.73E-03    0.16E-06
   0      8    11.287    12.209    0.38E-03    0.70E-03    0.15E-06
   1      7    11.287     4.655    0.22E-03    0.25E-04    0.22E-06
|               ----> ADVICE to this user running VASP <----                  |
|     You enforced a specific xc type in the INCAR file but a different       |
|     type was found in the POTCAR file.                                      |
|     I HOPE YOU KNOW WHAT YOU ARE DOING!                                     |

  PAW_PBE Au 04Oct2007                  :
  PAW_PBE O 08Apr2002                   :
  PAW_PBE Sr_sv 07Sep2000               :
  PAW_PBE Ti_sv 26Sep2005               :
  PAW_PBE H 15Jun2001                   :

 POSCAR: Au O  Sr Ti H
  positions in cartesian coordinates
 exchange correlation table for  LEXCH =       17
   RHO(1)=    0.500       N(1)  =     2000
   RHO(2)=  100.500       N(2)  =     4000

 VTST: version 4.1, (05/19/21)

 CHAIN: initializing optimizer

 OPT: Using VASP Dynamics algorithm
 CHAIN: Read ICHAIN            0

 POSCAR: Au O  Sr Ti H
  positions in cartesian coordinates

 ion  position               nearest neighbor table
   1  0.719  0.528  0.753-  15 2.72  16 2.74  14 2.80  44 2.82   2 2.83  29 2.96  46 3.07  36 3.60

   2  0.625  0.568  0.704- 264 2.08  15 2.82   1 2.83  48 2.86  46 2.88  16 2.89  12 2.92  36 3.21
                            11 3.31   5 3.53 380 3.70
   3  0.719  0.259  0.692- 294 2.06 253 2.07  32 2.66  43 2.79  27 2.84 401 3.05 370 4.02 371 4.05

   4  0.292  0.746  0.698- 310 2.05 266 2.06   9 2.79  23 2.81  50 3.08  42 3.28  45 3.51 368 4.23
                           372 4.25
   5  0.513  0.604  0.777-  26 2.68  48 2.76  13 2.84  12 2.91  47 2.94  39 2.95  16 3.00   6 3.05
                            49 3.38  31 3.47   2 3.53
   6  0.578  0.721  0.791-  18 2.76  17 2.76  36 2.78  47 2.80  13 3.02   5 3.05  48 3.06  16 3.31

   7  0.550  0.385  0.829-  10 2.76  33 2.80  20 2.87  29 2.88  31 2.97  34 2.97  12 3.05  41 3.40

[...]

  27  0.613  0.319  0.698- 263 2.03  43 2.77  10 2.79   3 2.84  46 2.85  25 2.85  34 2.86  32 3.46
                           370 3.59 375 4.22
  28  0.725  0.756  0.693- 459 1.57 293 2.05 250 2.11  36 2.64  15 3.12 400 3.13  17 3.43 379 3.96
                           380 4.35 364 4.36
  29  0.656  0.443  0.811-  12 2.83  44 2.85  31 2.86   7 2.88  43 2.91   1 2.96  16 3.25  46 3.43

  30  0.368  0.618  0.820-   9 2.77  39 2.79  13 2.84  38 2.85  24 2.87  50 2.95
  31  0.571  0.511  0.856-  33 2.77  16 2.84  29 2.86  12 2.88  47 2.89  39 2.92   7 2.97   5 3.47

  32  0.665  0.194  0.752-   3 2.66  10 2.79  25 2.87  27 3.46  43 3.52
  33  0.473  0.451  0.880-  31 2.77  39 2.78  20 2.78   7 2.80  38 2.82
  34  0.516  0.377  0.734-  12 2.80  41 2.81  49 2.86  27 2.86  11 2.90   7 2.97  37 3.10  20 3.17
                            10 3.27  46 3.60 375 4.19
  35  0.284  0.337  0.703- 267 2.06  21 2.78  40 2.83  37 2.90   8 3.07 369 3.53 378 4.09
  36  0.678  0.683  0.752-  28 2.64  15 2.66   6 2.78  16 2.78   2 3.21  17 3.38  48 3.48   1 3.60

  37  0.398  0.382  0.690- 303 2.03 289 2.14  21 2.77  19 2.90  35 2.90  40 2.99  49 3.06  34 3.10
                           369 3.39  22 3.59  11 3.59 375 3.78
  38  0.376  0.492  0.834-  24 2.81  33 2.82  49 2.85  30 2.85  40 2.85  39 2.89  20 3.02
  39  0.463  0.573  0.864-  33 2.78  30 2.79  47 2.83  38 2.89  13 2.89  31 2.92   5 2.95
  40  0.327  0.414  0.769-  35 2.83  21 2.83  38 2.85  24 2.87   8 2.94  19 2.96  20 2.97  37 2.99
                            49 3.10
  41  0.488  0.268  0.775-  22 2.74  10 2.79  34 2.81  25 2.84  21 2.86  20 2.94   7 3.40
  42  0.423  0.697  0.700- 256 2.03  26 2.72  23 2.77  50 2.79  18 2.91  48 3.01   4 3.28 386 4.05
                           368 4.11
  43  0.701  0.347  0.756-  27 2.77   3 2.79  10 2.81  44 2.82  14 2.88  29 2.91  46 3.03  32 3.52

  44  0.774  0.431  0.795-  14 2.72  43 2.82   1 2.82  29 2.85
  45  0.257  0.592  0.695- 265 2.02 310 2.11   9 2.69   8 2.84  24 2.89  19 3.00   4 3.51 368 3.57
                           373 3.72
  46  0.647  0.442  0.697- 279 2.19  14 2.78  27 2.85   2 2.88  12 2.99  43 3.03   1 3.07  11 3.33
                            29 3.43 370 3.50  34 3.60
  47  0.565  0.640  0.862-  16 2.77   6 2.80  39 2.83  13 2.87  31 2.89   5 2.94
  48  0.546  0.665  0.701- 280 2.10   5 2.76  17 2.84   2 2.86  26 2.89  42 3.01   6 3.06  18 3.41
                            36 3.48 386 3.50
  49  0.443  0.475  0.756-  12 2.84  38 2.85  34 2.86  26 2.86  19 2.88  11 2.90  20 2.92  37 3.06
                            40 3.10   5 3.38
  50  0.373  0.737  0.778-   9 2.77  42 2.79  23 2.81  13 2.82  18 2.82  30 2.95   4 3.08
  51  0.250  0.189  0.454- 448 1.97 418 2.13 319 2.73 342 2.82 360 2.82 327 2.85
  52  0.749  0.938  0.455- 417 1.96 444 2.00 350 2.81 339 2.82 322 2.86 332 2.89
  53  0.749  0.688  0.456- 432 1.98 446 2.03 325 2.80 348 2.81 316 2.85 362 2.87
  54  0.749  0.438  0.456- 422 1.99 458 2.01 323 2.72 347 2.82 359 2.84 349 2.85
  55  0.750  0.190  0.456- 445 1.98 423 2.11 324 2.75 335 2.80 358 2.84 346 2.85
  56  0.417  0.936  0.454- 424 2.00 440 2.01 357 2.77 345 2.79 329 2.87 320 2.92
  57  0.417  0.685  0.455- 414 1.91 443 2.04 356 2.77 344 2.78 321 2.84 331 2.91
  58  0.417  0.435  0.454- 415 1.96 442 2.01 343 2.77 355 2.77 333 2.83 318 2.85
  59  0.084  0.687  0.453- 439 1.97 413 2.09 352 2.76 340 2.79 330 2.82 336 2.94
  60  0.084  0.937  0.453- 436 1.98 412 2.11 353 2.77 341 2.79 326 2.89 338 2.91
  61  0.083  0.437  0.453- 438 1.97 421 2.11 361 2.76 351 2.78 328 2.80 317 2.92
  62  0.084  0.187  0.453- 437 1.98 433 2.12 360 2.76 385 2.78 327 2.88 337 2.89
  63  0.917  0.812  0.454- 434 1.98 411 2.12 362 2.76 339 2.80 341 2.80 336 2.87
  64  0.916  0.562  0.454- 435 1.97 410 2.12 349 2.78 316 2.78 340 2.80 317 2.89
  65  0.251  0.439  0.455- 449 1.98 420 2.06 318 2.70 343 2.81 351 2.85 328 2.86
  66  0.916  0.062  0.454- 455 1.98 430 2.11 358 2.79 385 2.81 332 2.85 338 2.89
  67  0.916  0.312  0.454- 456 1.97 429 2.09 359 2.79 361 2.80 335 2.81 337 2.90
  68  0.417  0.187  0.454- 441 1.98 416 2.07 354 2.78 342 2.79 334 2.81 319 2.88
  69  0.252  0.687  0.456- 419 1.99 450 2.03 321 2.76 344 2.79 352 2.87 330 2.90
  70  0.917  0.937  0.453- 455 1.98 411 2.11 339 2.78 341 2.78 332 2.89 338 2.90
  71  0.583  0.189  0.455- 452 1.98 426 2.09 334 2.73 324 2.79 354 2.82 346 2.84
  72  0.000  0.125  0.498- 430 1.97 433 1.98 385 2.74 337 2.79 338 2.80
  73  0.584  0.810  0.455- 454 1.97 431 2.11 325 2.74 331 2.75 350 2.84 357 2.85
  74  1.000  0.373  0.498- 429 1.94 421 1.95 361 2.74 337 2.77 317 2.85
  75  1.000  0.627  0.498- 413 1.93 410 1.95 340 2.72 336 2.78 317 2.83
  76  0.333  0.125  0.498- 416 1.95 418 2.01 342 2.74 319 2.75 320 2.78 367 3.45
  77  0.000  0.875  0.500- 412 1.97 411 1.97 341 2.78 336 2.78 338 2.79
  78  0.333  0.874  0.499- 424 1.97 425 2.00 321 2.75 345 2.75 320 2.84 372 3.12
  79  0.666  0.126  0.499- 426 1.96 423 2.01 324 2.72 346 2.76 322 2.82 371 3.37
  80  0.336  0.625  0.504- 414 1.93 419 2.08 368 2.73 318 2.81 321 2.81 344 2.91
  81  0.334  0.378  0.503- 415 1.94 420 2.08 318 2.70 369 2.70 343 2.88 319 2.91
  82  0.665  0.378  0.503- 428 1.94 422 2.06 323 2.71 370 2.74 347 2.89 324 2.92
  83  0.915  0.687  0.453- 434 1.98 410 2.10 316 2.75 340 2.80 362 2.81 336 2.93
  84  0.916  0.437  0.454- 435 1.98 429 2.10 359 2.77 349 2.78 361 2.80 317 2.91
  85  0.916  0.187  0.453- 456 1.98 430 2.11 358 2.77 335 2.79 385 2.79 337 2.92
[...]
  375          m_alltoall_d                          0.876158                       2520   4
  376        fftwav_mpi                            3.322779                          840   3
  377          fft3d_mpi                             2.975760                        840   4
  378            fftbrc_mpi                            2.527178                      840   5
  379              fftbas_plan_mpi                       2.524685                    840   6
  380                dfftw_execute                         1.279118                 2520   7
  381                map_forward                           0.743435                 1680   7
  382                  map_gather                            0.077519                840   8
  383                  m_alltoallv_z                         0.276145                840   8
  384                  map_scatter                           0.153878                840   8
  385        hamilt_local                          2.979749                          840   3
  386          vhamil                                0.402255                        840   4
  387          kinhamil                              2.570304                        840   4
  388            fftext_mpi                            2.541148                      840   5
  389              fft3d_mpi                             2.483021                    840   6
  390                fftbrc_mpi                            2.090064                  840   7
  391                  fftbas_plan_mpi                       2.087305                840   8
  392                    dfftw_execute                         1.092677             2520   9
  393                    map_backward                          0.503814             1680   9
  394                      map_gather                            0.131628            840  10
  395                      m_alltoallv_z                         0.242931            840  10
  396                      map_scatter                           0.115550            840  10
  397        redis_pw                              1.625822                          846   3
  398          m_alltoall_d                          1.568258                       2520   4
  399        orth1                                 1.719825                          420   3
  400        m_sumb_d                              1.300816                            6   3
  401        shift_bands_between_low_high          0.000010                            6   3
  402        lincom                                1.829938                            6   3
  403      set_charge                            3.442041                              6   2
  404        soft_charge                           3.169251                            6   3
  405          fftwav_mpi                            2.736554                        702   4
  406            fft3d_mpi                             2.465054                      702   5
  407              fftbrc_mpi                            2.103773                    702   6
  408                fftbas_plan_mpi                       2.101582                  702   7
  409                  dfftw_execute                         1.061173               2106   8
  410                  map_forward                           0.596241               1404   8
  411                    map_gather                            0.061340              702   9
  412                    m_alltoallv_z                         0.215328              702   9
  413                    map_scatter                           0.128795              702   9
  414          pw_charge                             0.313224                        702   4
  415          m_sumb_d                              0.074703                          6   4
  416          fft_gq                                0.030632                          6   4
  417            fft3d_mpi                             0.029601                        6   5
  418              fftbrc_mpi                            0.027695                      6   6
  419                fftbas_plan_mpi                       0.027677                    6   7
  420                  dfftw_execute                         0.005260                 18   8
  421                  map_backward                          0.018978                 12   8
  422                    map_gather                            0.002275               12   9
  423                    m_alltoallv_z                         0.015700               12   9
  424                    map_scatter                           0.000844               12   9
  425        depsum                                0.012917                            6   3
  426          m_sumb_d                              0.006198                          6   4
  427        augmentation_charge                   0.258485                            6   3
  428          m_sumb_d                              0.015231                          6   4
  429          fft3d_mpi                             0.052018                          6   4
  430            fftbrc_mpi                            0.050633                        6   5
  431              fftbas_plan_mpi                       0.050615                      6   6
  432                dfftw_execute                         0.006822                   18   7
  433                map_backward                          0.039412                   12   7
  434                  map_gather                            0.002784                  6   8
  435                  m_alltoallv_z                         0.034845                  6   8
  436                  map_scatter                           0.001667                  6   8

 Flat profile

 edwav                                7585.908855         691
 potlok                               1259.604953         705
 m_alltoall_d                          679.268414     1675653
 dfftw_execute                         568.505612     1204512
 lincom                                541.116952        2098
 m_sumb_d                              523.616553      711221
 total_time                            487.243472           1
 m_alltoallv_z                         414.348231      402907
 orth1                                 347.356719      105607
 fftbas_plan_mpi                       248.212589      401504
 choleski                              241.578748         698
 eddiag                                230.170152         360
 fft3d_mpi                             184.678449      401504
 ggaall_grid                           157.345791         936
 fftwav_mpi                             98.260831      245646
 eddav                                  93.452936           5
 eccp                                   92.126148      193760
 map_scatter                            83.079471      402907
 racc0                                  76.774830       50719
 rpro1                                  71.377448       50019
 map_forward                            66.684143      545762
 map_gather                             54.476594      402907
 pw_charge                              35.695833       81768
 vhamil                                 26.386945       52539
 setdij_                                25.917063         888
 augmentation_charge                    22.239833         698
 w1_dscal                               15.314132       48160
 force_and_stress                       12.655197           7
 m_bcast_z                              11.541191        2380
 redis_pw                               10.892394      203200
 rpromu                                  8.954393        3185
 ggemm                                   7.791290        3259
 fftext_mpi                              7.269989      100699
 orthch                                  5.205343         698
 redis_proj                              5.013037      160975
 rpromu_gemm                             4.975046      726180
 lapack                                  3.850661        2559
 m_bcast_d                               3.757917        8411
 rspher_all                              3.247759          92
 overl                                   3.100205       53977
 forhar                                  2.822906           7
 forloc                                  2.820677           7
 map_backward                            2.135812      257246
 elmin_all                               1.846744           7
 stufak                                  1.832775           7
 kinhamil                                1.761968       52539
 soft_charge                             1.612208         698
 fftbrc_mpi                              1.360122      401504
 densta                                  1.314618         709
 rsp                                     0.990916        1417
 depsum                                  0.786787         698
 hamilt_local                            0.403537       49980
 pothar                                  0.352577         705
 set_dd_paw                              0.341742         712
 w1_copy                                 0.293352        7677
 set_charge                              0.173102         698
 strnlr                                  0.147407           7
 rpro_isp                                0.140692          91
 fft_gq                                  0.118098         698
 overl1                                  0.095253        2559
 apply_precond                           0.094328        1859
 wavpre_noio                             0.081466           6
 rcp                                     0.075620        1417
 fewald                                  0.065454        1417
 setup_precond                           0.063342         700
 strehar                                 0.039670           7
 fornlr                                  0.039665           7
 hamiltmu                                0.037958        2559
 strkin                                  0.037004           7
 strelo                                  0.036855           7
 raccmu_                                 0.031092        2559
 newband                                 0.029183        2564
 w1_projall                              0.011541        1859
 redis_pw_all                            0.004381         691
 truncate_high_frequency_w1              0.003466        3259
 redis_pw_over_bands                     0.002769         704
 set_rsgf_all                            0.001771         712
 fordep                                  0.001610           7
 brgrid                                  0.001318           1
 potlok_metagga                          0.001199         705
 phaser                                  0.000327         440
 crpa_reader                             0.000256           1
 proall                                  0.000094           7
 rotate_active_occupied_orbital          0.000079           7
 vectorpot                               0.000036           1
 set_dd_magatom                          0.000033          14
 shift_bands_between_low_high            0.000019          13
  summed up times    14341.0079481602

 Accumulative profile

 total_time                          14341.007948           1
 elmin_all                           13469.311438           7
 edwav                               10702.106878         691
 potlok                               1873.965688         705
 fft3d_mpi                            1623.481023      401504
 fftbrc_mpi                           1438.802574      401504
 fftbas_plan_mpi                      1437.442452      401504
 fftwav_mpi                            960.695240      245646
 orthch                                786.010221         698
 m_alltoall_d                          679.268414     1675653
 dfftw_execute                         568.505612     1204512
 lincom                                541.116952        2098
 m_sumb_d                              523.616553      711221
 eddiag                                475.414849         360
 m_alltoallv_z                         414.348231      402907
 set_charge                            402.204794         698
 map_forward                           391.423298      545762
 soft_charge                           369.798954         698
 redis_proj                            362.000873      160975
 orth1                                 347.356719      105607
 redis_pw                              333.172972      203200
 fftext_mpi                            303.376048      100699
 choleski                              241.578748         698
 map_backward                          229.300952      257246
 hamilt_local                          177.709732       49980
 eddav                                 175.877016           5
 kinhamil                              160.128429       52539
 ggaall_grid                           157.345791         936
 eccp                                  103.617285      193760
 racc0                                  99.724438       50719
 force_and_stress                       95.552520           7
 map_scatter                            83.079471      402907
 rpro1                                  81.190837       50019
 rpro_isp                               65.653702          91
 redis_pw_over_bands                    55.111996         704
 redis_pw_all                           55.109228         691
 map_gather                             54.476594      402907
 strnlr                                 48.349881           7
 pw_charge                              35.695833       81768
 setdij_                                35.035918         888
 augmentation_charge                    30.889318         698
 vhamil                                 26.386945       52539
 fornlr                                 16.076636           7
 rpromu                                 15.643310        3185
 w1_dscal                               15.314132       48160
 hamiltmu                               13.870386        2559
 m_bcast_z                              11.541191        2380
 set_dd_paw                              9.114349         712
 ggemm                                   7.791290        3259
 densta                                  7.552013         709
 proall                                  5.121452           7
 rpromu_gemm                             4.975046      726180
 raccmu_                                 4.623250        2559
 newband                                 4.226442        2564
 lapack                                  3.850661        2559
 m_bcast_d                               3.757917        8411
 fft_gq                                  3.590808         698
 rspher_all                              3.247759          92
 overl                                   3.100205       53977
 w1_projall                              3.025340        1859
 forloc                                  2.867881           7
 forhar                                  2.865544           7
 stufak                                  1.832775           7
 fordep                                  1.660640           7
 wavpre_noio                             1.650318           6
 pothar                                  1.536469         705
 fewald                                  1.344196        1417
 depsum                                  1.343420         698
 rsp                                     0.990916        1417
 w1_copy                                 0.293352        7677
 overl1                                  0.095253        2559
 apply_precond                           0.094328        1859
 setup_precond                           0.091626         700
 rcp                                     0.075620        1417
 strelo                                  0.065171           7
 strehar                                 0.042945           7
 strkin                                  0.039834           7
 truncate_high_frequency_w1              0.003466        3259
 set_rsgf_all                            0.001771         712
 brgrid                                  0.001318           1
 potlok_metagga                          0.001199         705
 phaser                                  0.000327         440
 crpa_reader                             0.000256           1
 rotate_active_occupied_orbital          0.000079           7
 vectorpot                               0.000036           1
 set_dd_magatom                          0.000033          14
 shift_bands_between_low_high            0.000019          13

Profiling took  10.318387  3.404450  0.007687  0.006755 seconds
Profiling took  11.774973 seconds