 vasp.6.3.2 27Jun22 (build Jul 13 2023 16:24:09) gamma-only

 executed on           IFC15_impi date 2023.08.17  10:42:11

 INCAR:
   ENCUT = 500.000000
   SIGMA = 0.010000
   EDIFF = 1.00e-05
   ALGO = A
   ISMEAR = 0
   NELM = 200
   NSW = 999
   NCORE = 32
   LCHARG = .TRUE.
   LWAVE = .TRUE.
   LREAL = Auto
   IBRION = 5
   POTIM = 0.015
   NFREE = 2
   ISYM = 0
   EDIFFG = -0.05
   GGA = BF
   LUSE_VDW = .TRUE.
   ZAB_VDW = -1.8867
   LBEEFENS = .TRUE.
   DIPOL = 0.5 0.5 0.65
   IDIPOL = 3
   LDIPOL = .TRUE.

 POTCAR:    PAW_PBE Au 04Oct2007
 POTCAR:    PAW_PBE O 08Apr2002
 POTCAR:    PAW_PBE Sr_sv 07Sep2000
 POTCAR:    PAW_PBE Ti_sv 26Sep2005
|               ----> ADVICE to this user running VASP <----                  |
|     You have switched on vdW-DFT.                                           |
|     This routine was written and supplied by Jiri Klimes. We recommend      |
|     that you carefully read and cite the following publications:            |
|       J. Klimes, D.R. Bowler, A. Michelides                                 |
|          J. Phys.: Cond Matt. 22 022201 (2010)                              |
|       J. Klimes, D.R. Bowler, A. Michelides                                 |
|          Phys. Rev. B. 83, 195131 (2011)                                    |
|     and references therein.                                                 |

   TITEL  = PAW_PBE Au 04Oct2007
   POMASS =  196.966; ZVAL   =   11.000    mass and valenz
   ENMAX  =  229.943; ENMIN  =  172.457 eV

   TITEL  = PAW_PBE O 08Apr2002
   POMASS =   16.000; ZVAL   =    6.000    mass and valenz
   ENMAX  =  400.000; ENMIN  =  300.000 eV

   TITEL  = PAW_PBE Sr_sv 07Sep2000
   POMASS =   87.620; ZVAL   =   10.000    mass and valenz
   ENMAX  =  229.353; ENMIN  =  172.014 eV

   TITEL  = PAW_PBE Ti_sv 26Sep2005
   POMASS =   47.880; ZVAL   =   12.000    mass and valenz
   ENMAX  =  274.610; ENMIN  =  205.957 eV

 Optimization of the real space projectors (new method)

 maximal supplied QI-value         = 15.12
 optimisation between [QCUT,QGAM] = [ 11.34, 22.83] = [ 36.00,145.93] Ry
 Optimized for a Real-space Cutoff    1.39 Angstroem

   l    n(q)    QCUT    max X(q) W(low)/X(q) W(high)/X(q)  e(spline)
   2      9    11.338    60.898    0.39E-03    0.42E-03    0.21E-06
   2      9    11.338    58.894    0.40E-03    0.42E-03    0.22E-06
   0      9    11.338   109.617    0.13E-03    0.20E-04    0.13E-06
   0      9    11.338    75.026    0.13E-03    0.20E-04    0.13E-06
   1      9    11.338    16.344    0.33E-04    0.24E-03    0.18E-06
   1      9    11.338    10.160    0.26E-04    0.19E-03    0.15E-06
 Optimization of the real space projectors (new method)

[...]

   l    n(q)    QCUT    max X(q) W(low)/X(q) W(high)/X(q)  e(spline)
   0     11    11.338    11.565    0.26E-04    0.80E-05    0.70E-07
   0     11    11.338    10.214    0.41E-04    0.15E-04    0.15E-06
   1     10    11.338   189.983    0.18E-03    0.52E-04    0.42E-06
   1     10    11.338   193.105    0.19E-03    0.52E-04    0.42E-06
   2     10    11.338   115.941    0.22E-03    0.42E-03    0.43E-06
   2     10    11.338    76.444    0.21E-03    0.41E-03    0.42E-06
 Optimization of the real space projectors (new method)

 maximal supplied QI-value         = 16.25
 optimisation between [QCUT,QGAM] = [ 11.38, 22.75] = [ 36.24,144.96] Ry
 Optimized for a Real-space Cutoff    1.27 Angstroem

   l    n(q)    QCUT    max X(q) W(low)/X(q) W(high)/X(q)  e(spline)
   0      9    11.376    12.277    0.53E-04    0.25E-04    0.25E-07
   0      9    11.376    11.419    0.89E-04    0.67E-05    0.35E-07
   1      8    11.376     4.010    0.13E-03    0.11E-03    0.29E-07
   1      8    11.376     6.182    0.94E-04    0.19E-03    0.11E-06
   2      8    11.376    47.177    0.13E-03    0.88E-03    0.24E-06
   2      8    11.376    42.437    0.13E-03    0.86E-03    0.23E-06
|               ----> ADVICE to this user running VASP <----                  |
|     You enforced a specific xc type in the INCAR file but a different       |
|     type was found in the POTCAR file.                                      |
|     I HOPE YOU KNOW WHAT YOU ARE DOING!                                     |

  PAW_PBE Au 04Oct2007                  :
  PAW_PBE O 08Apr2002                   :
  PAW_PBE Sr_sv 07Sep2000               :
  PAW_PBE Ti_sv 26Sep2005               :

 POSCAR: Au  O Sr Ti
  positions in direct lattice
  velocities in cartesian coordinates
 exchange correlation table for  LEXCH =       17
   RHO(1)=    0.500       N(1)  =     2000
   RHO(2)=  100.500       N(2)  =     4000

 ion  position               nearest neighbor table
   1  0.719  0.525  0.754-  16 2.72  15 2.72  14 2.78   2 2.82  44 2.83  29 2.97  46 3.07
   2  0.626  0.566  0.704- 264 2.08  15 2.81   1 2.82  46 2.86  48 2.87  12 2.92  16 2.93  36 3.09
                            11 3.30   5 3.53 380 3.71
   3  0.719  0.259  0.692- 294 2.07 253 2.08  32 2.65  43 2.78  27 2.84 401 3.05 370 4.02 371 4.04

   4  0.288  0.745  0.699- 310 2.05 266 2.06   9 2.77  23 2.80  50 3.09  42 3.50  45 3.50 368 4.27
                           372 4.30
   5  0.515  0.604  0.777-  26 2.69  48 2.74  13 2.84  12 2.90  47 2.91  39 2.94  16 3.00   6 3.12
                            49 3.41  31 3.45   2 3.53
   6  0.577  0.726  0.792-  36 2.74  18 2.74  17 2.77  47 2.81  13 2.99   5 3.12  48 3.13  16 3.50

   7  0.550  0.384  0.830-  10 2.76  33 2.80  29 2.86  20 2.86  31 2.97  34 2.98  12 3.04  41 3.41

   8  0.243  0.467  0.709- 309 2.10  19 2.68  24 2.80  45 2.83  40 2.94  35 3.06 378 4.16
   9  0.282  0.660  0.767-  45 2.70  50 2.75   4 2.77  30 2.77  24 2.80
  10  0.602  0.289  0.788-   7 2.76  41 2.79  32 2.79  27 2.79  43 2.80  25 3.13  34 3.27
  11  0.515  0.483  0.678- 279 2.11 247 2.16  26 2.70  12 2.78  49 2.90  34 2.90 389 3.13   2 3.30
                            46 3.33 375 3.54  37 3.58 386 4.06
  12  0.563  0.486  0.763-  11 2.78  34 2.80  49 2.84  29 2.86  31 2.89   5 2.90   2 2.92  46 2.99
                            16 3.01   7 3.04
  13  0.464  0.695  0.830-  50 2.81   5 2.84  30 2.85  47 2.87  39 2.89  18 2.92   6 2.99
  14  0.764  0.430  0.706- 254 2.01  44 2.72   1 2.78  46 2.79  43 2.88 363 3.72 370 4.21
  15  0.734  0.616  0.694- 292 2.10 250 2.11  36 2.68   1 2.72   2 2.81  28 3.24 380 3.42 365 3.74

  16  0.637  0.583  0.800-   1 2.72  36 2.78  47 2.78  31 2.82   2 2.93   5 3.00  12 3.01  29 3.22
                             6 3.50
  17  0.594  0.785  0.712- 257 2.08   6 2.77  28 2.79  48 2.94  18 2.97  36 3.13 379 4.17 384 4.31

[...]

  27  0.613  0.318  0.698- 263 2.04  43 2.78  10 2.79  46 2.83   3 2.84  34 2.86  25 2.86  32 3.43
                           370 3.60 375 4.23
  28  0.705  0.758  0.688- 293 2.05 250 2.05  36 2.64  17 2.79 400 3.14  15 3.24 379 3.80 380 4.18

[...]

  30  0.369  0.618  0.820-   9 2.77  39 2.78  38 2.84  13 2.85  24 2.90  50 2.92
  31  0.571  0.510  0.857-  33 2.77  16 2.82  29 2.87  12 2.89  39 2.91  47 2.92   7 2.97   5 3.45

  32  0.664  0.194  0.752-   3 2.65  10 2.79  25 2.87  27 3.43  43 3.49
  33  0.473  0.451  0.879-  31 2.77  20 2.78  39 2.78   7 2.80  38 2.82
  34  0.516  0.377  0.734-  12 2.80  41 2.81  49 2.86  27 2.86  11 2.90   7 2.98  37 3.09  20 3.17
                            10 3.27  46 3.58 375 4.19
  35  0.284  0.337  0.703- 267 2.06  21 2.78  40 2.83  37 2.91   8 3.06 369 3.54 378 4.10
  36  0.670  0.681  0.749-  28 2.64  15 2.68   6 2.74  16 2.78   2 3.09  17 3.13  48 3.23
  37  0.398  0.383  0.691- 303 2.03 289 2.14  21 2.77  35 2.91  19 2.91  40 2.99  49 3.04  34 3.09
                           369 3.40  11 3.58  22 3.59 375 3.79
  38  0.376  0.492  0.834-  24 2.81  33 2.82  30 2.84  49 2.84  40 2.85  39 2.90  20 3.03
  39  0.464  0.574  0.863-  33 2.78  30 2.78  47 2.85  13 2.89  38 2.90  31 2.91   5 2.94
  40  0.327  0.414  0.770-  21 2.82  35 2.83  38 2.85  24 2.87   8 2.94  20 2.98  19 2.99  37 2.99
                            49 3.09
  41  0.487  0.268  0.775-  22 2.74  10 2.79  34 2.81  25 2.84  21 2.85  20 2.94   7 3.41
  42  0.430  0.699  0.699- 256 2.03  26 2.73  23 2.76  18 2.82  50 2.84  48 2.91   4 3.50 386 3.97
                           368 4.18
  43  0.700  0.346  0.757-  27 2.78   3 2.78  10 2.80  44 2.81  14 2.88  29 2.90  46 3.02  32 3.49

  44  0.774  0.428  0.796-  14 2.72  43 2.81   1 2.83  29 2.85
  45  0.255  0.592  0.695- 265 2.04 310 2.10   9 2.70   8 2.83  24 2.89  19 3.00   4 3.50 368 3.61
                           373 3.70
  46  0.647  0.440  0.698- 279 2.19  14 2.79  27 2.83   2 2.86  12 2.99  43 3.02   1 3.07  11 3.33
                            29 3.45 370 3.49  34 3.58
  47  0.566  0.641  0.861-  16 2.78   6 2.81  39 2.85  13 2.87   5 2.91  31 2.92
  48  0.548  0.664  0.702- 280 2.11   5 2.74   2 2.87  26 2.89  42 2.91  17 2.94   6 3.13  36 3.23
                            18 3.45 386 3.51 380 4.37
  49  0.443  0.475  0.756-  38 2.84  12 2.84  26 2.85  34 2.86  19 2.89  11 2.90  20 2.92  37 3.04
                            40 3.09   5 3.41
  50  0.373  0.735  0.777-   9 2.75  23 2.78  13 2.81  42 2.84  18 2.86  30 2.92   4 3.09
  51  0.250  0.189  0.454- 448 1.97 418 2.13 319 2.74 360 2.81 342 2.81 327 2.85
  52  0.749  0.938  0.455- 417 1.95 444 2.00 350 2.82 339 2.84 322 2.84 332 2.88
  53  0.749  0.689  0.457- 432 1.98 446 2.04 325 2.78 362 2.83 348 2.84 316 2.88
  54  0.749  0.438  0.456- 422 1.99 458 2.01 323 2.71 347 2.82 359 2.84 349 2.85
  55  0.750  0.190  0.456- 445 1.98 423 2.11 324 2.75 335 2.80 358 2.85 346 2.85
  56  0.417  0.936  0.454- 424 2.00 440 2.01 357 2.77 345 2.79 329 2.87 320 2.92
  57  0.417  0.685  0.455- 414 1.91 443 2.05 356 2.77 344 2.78 321 2.83 331 2.90
  58  0.417  0.435  0.454- 415 1.96 442 2.01 355 2.77 343 2.78 333 2.82 318 2.85
  59  0.084  0.687  0.453- 439 1.97 413 2.10 352 2.76 340 2.79 330 2.81 336 2.94
  60  0.084  0.937  0.453- 436 1.99 412 2.11 353 2.77 341 2.79 326 2.90 338 2.91
  61  0.083  0.437  0.453- 438 1.97 421 2.11 361 2.78 328 2.78 351 2.78 317 2.92
  62  0.084  0.187  0.453- 437 1.98 433 2.12 360 2.76 385 2.78 327 2.87 337 2.89
  63  0.917  0.812  0.454- 434 1.98 411 2.12 362 2.76 339 2.80 341 2.81 336 2.87
  64  0.916  0.562  0.454- 435 1.98 410 2.11 349 2.78 316 2.78 340 2.80 317 2.90
  65  0.251  0.439  0.455- 449 1.98 420 2.06 318 2.70 343 2.81 351 2.85 328 2.86
  66  0.916  0.062  0.454- 455 1.98 430 2.10 358 2.79 385 2.81 332 2.85 338 2.89
  67  0.916  0.312  0.454- 456 1.98 429 2.09 359 2.79 361 2.80 335 2.81 337 2.90
  68  0.417  0.187  0.454- 441 1.98 416 2.07 354 2.78 342 2.79 334 2.81 319 2.87
  69  0.252  0.687  0.456- 419 1.99 450 2.03 321 2.75 344 2.79 352 2.87 330 2.90
  70  0.917  0.937  0.453- 455 1.98 411 2.11 341 2.78 339 2.78 332 2.90 338 2.90
  71  0.583  0.189  0.455- 452 1.98 426 2.09 334 2.72 324 2.79 354 2.82 346 2.84
  72  0.000  0.125  0.498- 430 1.97 433 1.98 385 2.74 337 2.79 338 2.80
  73  0.584  0.810  0.455- 454 1.97 431 2.10 325 2.72 331 2.75 350 2.84 357 2.85
  74  0.000  0.374  0.499- 429 1.94 421 1.95 361 2.75 337 2.78 317 2.84
  75  1.000  0.627  0.498- 413 1.93 410 1.94 340 2.72 336 2.77 317 2.84
  76  0.334  0.125  0.498- 416 1.96 418 2.01 342 2.74 319 2.75 320 2.78 367 3.45
[...]
  303        fft3d_mpi                             4.358158                          497   3
  304          fftbrc_mpi                            4.228399                        497   4
  305            fftbas_plan_mpi                       4.226705                      497   5
  306              dfftw_execute                         0.631147                   1491   6
  307              map_forward                           1.758359                    490   6
  308                map_gather                            0.031975                  245   7
  309                m_alltoallv_z                         1.572147                  245   7
  310                map_scatter                           0.149099                  245   7
  311              map_backward                          1.482939                    504   6
  312                map_gather                            0.123835                  252   7
  313                m_alltoallv_z                         1.283944                  252   7
  314                map_scatter                           0.070056                  252   7
  315        ggaall_grid                           1.348363                            7   3
  316        forhar                                2.936957                            7   3
  317          m_sumb_d                              0.034032                          7   4
  318        strehar                               0.042446                            7   3
  319          m_sumb_d                              0.001744                          7   4
  320        m_bcast_d                             0.008438                           14   3
  321      potlok                               74.992719                             13   2
  322        fft3d_mpi                            29.340830                         2741   3
  323          fftbrc_mpi                           28.630010                       2741   4
  324            fftbas_plan_mpi                      28.619435                     2741   5
  325              dfftw_execute                         3.540146                   8223   6
  326              map_forward                          12.979083                   2754   6
  327                map_gather                            0.190099                 1390   7
  328                m_alltoallv_z                        11.920546                 1390   7
  329                map_scatter                           0.840948                 1390   7
  330              map_backward                         10.115357                   2728   6
  331                map_gather                            0.689846                 1364   7
  332                m_alltoallv_z                         9.016674                 1364   7
  333                map_scatter                           0.379524                 1364   7
  334        ggaall_grid                          19.320014                          237   3
  335        m_sumb_d                              0.481667                         1224   3
  336        fewald                                0.018815                           26   3
  337          rsp                                   0.017299                         26   4
  338          rcp                                   0.001308                         26   4
  339        pothar                                0.021609                           13   3
  340          m_sumb_d                              0.015079                         13   4
  341        m_bcast_d                             0.045223                           13   3
  342      potlok_metagga                        0.000012                             13   2
  343      set_dd_magatom                        0.000008                              7   2
  344      set_dd_paw                            0.157975                             13   2
  345        set_rsgf_all                          0.000033                           13   3
  346        m_sumb_d                              0.154780                           91   3
  347      m_sumb_d                             51.877783                           3517   2
  348      wavpre_noio                           1.644536                              6   2
  349        stufak                                1.576610                            6   3
  350      eddiag                              135.959806                              6   2
  351        overl                                 0.008034                            6   3
  352        redis_proj                            1.797850                           18   3
  353          m_alltoall_d                          1.790579                       2520   4
  354        fftwav_mpi                            3.374843                          840   3
  355          fft3d_mpi                             3.021717                        840   4
  356            fftbrc_mpi                            2.565718                      840   5
  357              fftbas_plan_mpi                       2.562758                    840   6
  358                dfftw_execute                         1.308409                 2520   7
  359                map_forward                           0.750729                 1680   7
  360                  map_gather                            0.081758                840   8
  361                  m_alltoallv_z                         0.260885                840   8
  362                  map_scatter                           0.164441                840   8
  363        hamilt_local                          3.024751                          840   3
  364          vhamil                                0.395194                        840   4
  365          kinhamil                              2.622468                        840   4
  366            fftext_mpi                            2.592197                      840   5
  367              fft3d_mpi                             2.528031                    840   6
  368                fftbrc_mpi                            2.118685                  840   7
  369                  fftbas_plan_mpi                       2.115560                840   8
  370                    dfftw_execute                         1.115551             2520   9
  371                    map_backward                          0.512333             1680   9
  372                      map_gather                            0.138144            840  10
  373                      m_alltoallv_z                         0.239917            840  10
  374                      map_scatter                           0.119226            840  10
  375        redis_pw                              1.694774                          846   3
  376          m_alltoall_d                          1.627423                       2520   4
  377        orth1                                 1.739188                          420   3
  378        m_sumb_d                              1.280225                            6   3
  379        shift_bands_between_low_high          0.000006                            6   3
  380        lincom                                1.820382                            6   3

 Flat profile

 edwav                                9936.458102         918
 potlok                               1684.204052         931
 m_alltoall_d                          834.827869     2200660
 dfftw_execute                         746.910037     1554420
 lincom                                722.794979        2774
 m_sumb_d                              641.446315      917766
 m_alltoallv_z                         550.999972      519996
 total_time                            471.669927           1
 orth1                                 447.934411      129920
 fftbas_plan_mpi                       345.897252      518140
 choleski                              323.260890         925
 fft3d_mpi                             243.524866      518140
 eddiag                                233.148837         472
 ggaall_grid                           201.496210        1162
 fftwav_mpi                            128.935304      315689
 eccp                                  127.291329      257040
 map_scatter                           109.624113      519996
 racc0                                  99.483577       64260
 rpro1                                  93.895262       64260
 map_forward                            89.242339      702572
 map_gather                             72.286251      519996
 pw_charge                              48.555144      108349
 setdij_                                32.834438        1114
 vhamil                                 30.856378       66080
 augmentation_charge                    30.192545         925
 w1_dscal                               21.123745       64260
 redis_pw                               14.822325      261182
 force_and_stress                       12.767522           7
 orthch                                 12.267135         925
 fftext_mpi                              9.834663      130340
 m_bcast_z                               9.375479        2381
 rpromu                                  9.111011        3185
 redis_proj                              6.810787      202938
 rpromu_gemm                             5.115448      719810
 overl                                   4.076874       66116
 m_bcast_d                               3.589019         960
 rspher_all                              3.281190          92
 forloc                                  2.931265           7
 map_backward                            2.912525      333708
 forhar                                  2.902925           7
 soft_charge                             2.417899         925
 elmin_all                               2.376466           7
 kinhamil                                2.265753       66080
 stufak                                  1.840351           7
 fftbrc_mpi                              1.782049      518140
 densta                                  1.777449         926
 rsp                                     1.314624        1869
 depsum                                  1.045824         925
 hamilt_local                            0.543396       66080
 pothar                                  0.485409         931
 set_charge                              0.370862         925
 set_dd_paw                              0.357119         938
 rpro_isp                                0.228886          91
 strnlr                                  0.150138           7
 fft_gq                                  0.148748         925
 rcp                                     0.096905        1869
 fewald                                  0.071441        1869
 wavpre_noio                             0.067926           6
 strelo                                  0.043223           7
 strehar                                 0.040702           7
 fornlr                                  0.040293           7
 strkin                                  0.037129           7
 redis_pw_all                            0.006827         918
 redis_pw_over_bands                     0.004006         931
 set_rsgf_all                            0.002412         938
 fordep                                  0.001559           7
 brgrid                                  0.001358           1
 potlok_metagga                          0.001308         931
 phaser                                  0.000413         550
 crpa_reader                             0.000257           1
 proall                                  0.000115           7
 vectorpot                               0.000095           1
 rotate_active_occupied_orbital          0.000082           7
 set_dd_magatom                          0.000044          14
 shift_bands_between_low_high            0.000013          13
  summed up times    18386.2133960724

 Accumulative profile

 total_time                          18361.591614           1
 elmin_all                           17498.644150           7
 edwav                               14065.862087         918
 potlok                               2501.301430         931
 fft3d_mpi                            2138.557621      518140
 fftbrc_mpi                           1895.032755      518140
 fftbas_plan_mpi                      1893.250706      518140
 fftwav_mpi                           1251.752999      315689
 orthch                               1054.830335         925
 m_alltoall_d                          834.827869     2200660
 dfftw_execute                         746.910037     1554420
 lincom                                722.794979        2774
 m_sumb_d                              641.446315      917766
 eddiag                                551.658338         472
 m_alltoallv_z                         550.999972      519996
 set_charge                            536.514075         925
 map_forward                           530.248291      702572
 soft_charge                           492.380985         925
 orth1                                 447.934411      129920
 redis_proj                            441.408061      202938
 redis_pw                              415.052921      261182
 fftext_mpi                            400.143618      130340
 choleski                              323.260890         925
 map_backward                          294.816910      333708
 hamilt_local                          236.626866       66080
 kinhamil                              205.227091       66080
 ggaall_grid                           201.496210        1162
 eccp                                  141.933928      257040
 racc0                                 125.166763       64260
 map_scatter                           109.624113      519996
 rpro1                                 106.309498       64260
 force_and_stress                       96.390942           7
 map_gather                             72.286251      519996
 redis_pw_over_bands                    69.619527         931
 redis_pw_all                           69.615520         918
 rpro_isp                               66.418504          91
 strnlr                                 48.635540           7
 pw_charge                              48.555144      108349
 setdij_                                43.683493        1114
 augmentation_charge                    42.130918         925
 vhamil                                 30.856378       66080
 w1_dscal                               21.123745       64260
 fornlr                                 16.270935           7
 rpromu                                 15.813084        3185
 set_dd_paw                             11.781651         938
 m_bcast_z                               9.375479        2381
 densta                                  7.232435         926
 fft_gq                                  5.290798         925
 proall                                  5.164972           7
 rpromu_gemm                             5.115448      719810
 overl                                   4.076874       66116
 m_bcast_d                               3.589019         960
 rspher_all                              3.281190          92
 forloc                                  2.941857           7
 forhar                                  2.936957           7
 stufak                                  1.840351           7
 pothar                                  1.728168         931
 fewald                                  1.710399        1869
 wavpre_noio                             1.644536           6
 depsum                                  1.631310         925
 fordep                                  1.584589           7
 rsp                                     1.314624        1869
 rcp                                     0.096905        1869
 strelo                                  0.047451           7
 strehar                                 0.042446           7
 strkin                                  0.039508           7
 set_rsgf_all                            0.002412         938
 brgrid                                  0.001358           1
 potlok_metagga                          0.001308         931
 phaser                                  0.000413         550
 crpa_reader                             0.000257           1
 vectorpot                               0.000095           1
 rotate_active_occupied_orbital          0.000082           7
 set_dd_magatom                          0.000044          14
 shift_bands_between_low_high            0.000013          13

Profiling took  13.441482  4.352381  0.009499  0.008919 seconds
Profiling took  16.776215 seconds