 vasp.6.3.2 27Jun22 (build Jan 03 2024 23:25:20) gamma-only

 executed on           IFC15_impi date 2024.06.01  05:01:46

 INCAR:
   ENCUT = 500.000000
   SIGMA = 0.010000
   EDIFF = 1.00e-05
   ALGO = A
   ISMEAR = 0
   NELM = 200
   NSW = 999
   NCORE = 32
   LCHARG = .TRUE.
   LWAVE = .TRUE.
   LREAL = Auto
   IBRION = 5
   POTIM = 0.015
   NFREE = 2
   ISYM = 0
   EDIFFG = -0.05
   GGA = BF
   LUSE_VDW = .TRUE.
   ZAB_VDW = -1.8867
   LBEEFENS = .TRUE.
   DIPOL = 0.5 0.5 0.65
   IDIPOL = 3
   LDIPOL = .TRUE.

 POTCAR:    PAW_PBE Au 04Oct2007
 POTCAR:    PAW_PBE O 08Apr2002
 POTCAR:    PAW_PBE Sr_sv 07Sep2000
 POTCAR:    PAW_PBE Ti_sv 26Sep2005
|               ----> ADVICE to this user running VASP <----                  |
|     You have switched on vdW-DFT.                                           |
|     This routine was written and supplied by Jiri Klimes. We recommend      |
|     that you carefully read and cite the following publications:            |
|       J. Klimes, D.R. Bowler, A. Michelides                                 |
|          J. Phys.: Cond Matt. 22 022201 (2010)                              |
|       J. Klimes, D.R. Bowler, A. Michelides                                 |
|          Phys. Rev. B. 83, 195131 (2011)                                    |
|     and references therein.                                                 |

   TITEL  = PAW_PBE Au 04Oct2007
   POMASS =  196.966; ZVAL   =   11.000    mass and valenz
   ENMAX  =  229.943; ENMIN  =  172.457 eV

   TITEL  = PAW_PBE O 08Apr2002
   POMASS =   16.000; ZVAL   =    6.000    mass and valenz
   ENMAX  =  400.000; ENMIN  =  300.000 eV

   TITEL  = PAW_PBE Sr_sv 07Sep2000
   POMASS =   87.620; ZVAL   =   10.000    mass and valenz
   ENMAX  =  229.353; ENMIN  =  172.014 eV

   TITEL  = PAW_PBE Ti_sv 26Sep2005
   POMASS =   47.880; ZVAL   =   12.000    mass and valenz
   ENMAX  =  274.610; ENMIN  =  205.957 eV

 Optimization of the real space projectors (new method)

 maximal supplied QI-value         = 15.12
 optimisation between [QCUT,QGAM] = [ 11.34, 22.83] = [ 36.00,145.93] Ry
 Optimized for a Real-space Cutoff    1.39 Angstroem

   l    n(q)    QCUT    max X(q) W(low)/X(q) W(high)/X(q)  e(spline)
   2      9    11.338    60.898    0.39E-03    0.42E-03    0.21E-06
   2      9    11.338    58.894    0.40E-03    0.42E-03    0.22E-06
   0      9    11.338   109.617    0.13E-03    0.20E-04    0.13E-06
   0      9    11.338    75.026    0.13E-03    0.20E-04    0.13E-06
   1      9    11.338    16.344    0.33E-04    0.24E-03    0.18E-06
   1      9    11.338    10.160    0.26E-04    0.19E-03    0.15E-06
 Optimization of the real space projectors (new method)

[...]

   l    n(q)    QCUT    max X(q) W(low)/X(q) W(high)/X(q)  e(spline)
   0     11    11.338    11.565    0.26E-04    0.80E-05    0.70E-07
   0     11    11.338    10.214    0.41E-04    0.15E-04    0.15E-06
   1     10    11.338   189.983    0.18E-03    0.52E-04    0.42E-06
   1     10    11.338   193.105    0.19E-03    0.52E-04    0.42E-06
   2     10    11.338   115.941    0.22E-03    0.42E-03    0.43E-06
   2     10    11.338    76.444    0.21E-03    0.41E-03    0.42E-06
 Optimization of the real space projectors (new method)

 maximal supplied QI-value         = 16.25
 optimisation between [QCUT,QGAM] = [ 11.38, 22.75] = [ 36.24,144.96] Ry
 Optimized for a Real-space Cutoff    1.27 Angstroem

   l    n(q)    QCUT    max X(q) W(low)/X(q) W(high)/X(q)  e(spline)
   0      9    11.376    12.277    0.53E-04    0.25E-04    0.25E-07
   0      9    11.376    11.419    0.89E-04    0.67E-05    0.35E-07
   1      8    11.376     4.010    0.13E-03    0.11E-03    0.29E-07
   1      8    11.376     6.182    0.94E-04    0.19E-03    0.11E-06
   2      8    11.376    47.177    0.13E-03    0.88E-03    0.24E-06
   2      8    11.376    42.437    0.13E-03    0.86E-03    0.23E-06
|               ----> ADVICE to this user running VASP <----                  |
|     You enforced a specific xc type in the INCAR file but a different       |
|     type was found in the POTCAR file.                                      |
|     I HOPE YOU KNOW WHAT YOU ARE DOING!                                     |

  PAW_PBE Au 04Oct2007                  :
  PAW_PBE O 08Apr2002                   :
  PAW_PBE Sr_sv 07Sep2000               :
  PAW_PBE Ti_sv 26Sep2005               :

 POSCAR: Au  O Sr Ti
  positions in cartesian coordinates
 exchange correlation table for  LEXCH =       17
   RHO(1)=    0.500       N(1)  =     2000
   RHO(2)=  100.500       N(2)  =     4000

 VTST: version 4.1, (05/19/21)

 CHAIN: initializing optimizer

 OPT: Using VASP Dynamics algorithm
 CHAIN: Read ICHAIN            0

 POSCAR: Au  O Sr Ti
  positions in cartesian coordinates

 ion  position               nearest neighbor table
   1  0.719  0.620  0.754-  49 2.71  48 2.72  40 2.78  29 2.83  18 2.83   3 2.96  19 3.05
   2  0.705  0.806  0.689-  74 2.04 117 2.05  10 2.64  47 2.80 516 3.14  49 3.23 430 3.81 429 4.18

   3  0.657  0.553  0.813-  18 2.85  33 2.86  38 2.86   5 2.87  17 2.91   1 2.96  48 3.20  19 3.46

[...]

   6  0.664  0.354  0.752-  30 2.66  36 2.80  28 2.86  12 3.45  17 3.52
   7  0.472  0.561  0.879-   5 2.77  43 2.78  24 2.79  33 2.81  13 2.81
   8  0.516  0.502  0.734-  38 2.80  15 2.81  12 2.85  22 2.87  37 2.90  33 2.97  11 3.10  43 3.17
                            36 3.27  19 3.58 434 4.18
   9  0.284  0.470  0.703-  52 2.06  45 2.78  14 2.83  11 2.91  34 3.07 440 3.54 432 4.10
  10  0.669  0.745  0.749-   2 2.64  49 2.68  32 2.74  48 2.78  29 3.08  47 3.13  21 3.25
  11  0.398  0.506  0.690- 188 2.03  78 2.12  45 2.77  44 2.91   9 2.91  14 2.99  22 3.04   8 3.10
                           440 3.39  37 3.58  42 3.60 434 3.78
  12  0.613  0.455  0.698-  59 2.03  17 2.77  36 2.79  30 2.83  19 2.83  28 2.85   8 2.85   6 3.45
                           439 3.60 434 4.22
  13  0.376  0.594  0.834-  27 2.81   7 2.81   4 2.84  22 2.85  14 2.85  24 2.90  43 3.03
  14  0.327  0.531  0.770-  45 2.82   9 2.83  13 2.85  27 2.87  34 2.95  43 2.98  44 2.98  11 2.99
                            22 3.09
  15  0.488  0.414  0.775-  42 2.73  36 2.79   8 2.81  28 2.85  45 2.86  43 2.94  33 3.41
  16  0.428  0.759  0.699- 110 2.03  25 2.73  50 2.75  23 2.82  46 2.85  21 2.93  31 3.46 445 3.99
                           441 4.16
  17  0.700  0.477  0.757-  12 2.77  30 2.79  36 2.80  18 2.81  40 2.87   3 2.91  19 3.02   6 3.52

  18  0.775  0.543  0.796-  40 2.72  17 2.81   1 2.83   3 2.85
  19  0.647  0.552  0.697-  87 2.20  40 2.80  12 2.83  29 2.87  38 2.99  17 3.02   1 3.05  37 3.33
                             3 3.46 439 3.49   8 3.58
  20  0.566  0.712  0.861-  48 2.79  32 2.81  24 2.84  41 2.88  39 2.91   5 2.91
  21  0.547  0.731  0.702- 215 2.10  39 2.74  29 2.87  25 2.88  16 2.93  47 2.94  32 3.15  10 3.25
                            46 3.43 445 3.50
  22  0.443  0.580  0.756-  13 2.85  38 2.85  25 2.85   8 2.87  44 2.89  37 2.90  43 2.91  11 3.04
                            14 3.09  39 3.41
  23  0.373  0.789  0.778-  35 2.75  50 2.79  41 2.81  16 2.82  46 2.86   4 2.94  31 3.10
  24  0.464  0.659  0.864-   7 2.79   4 2.79  20 2.84  41 2.89  13 2.90   5 2.93  39 2.94
  25  0.455  0.664  0.703-  76 2.12  39 2.69  37 2.70  16 2.73  22 2.85  21 2.88  44 3.04 445 3.61

  26  0.256  0.674  0.695-  60 2.03 181 2.10  35 2.70  34 2.83  27 2.90  44 3.00  31 3.51 441 3.59
                           436 3.70
  27  0.290  0.629  0.778-  34 2.80  35 2.81  13 2.81  14 2.87   4 2.89  26 2.90  44 2.90
  28  0.556  0.366  0.711- 180 2.13  42 2.78  15 2.85  12 2.85   6 2.86  36 3.13 433 3.94
  29  0.625  0.653  0.704-  61 2.08  49 2.80   1 2.83  21 2.87  19 2.87  38 2.92  48 2.93  10 3.08
                            37 3.29  39 3.53 429 3.70
  30  0.719  0.407  0.692-  73 2.06 114 2.08   6 2.66  17 2.79  12 2.83 517 3.05 439 4.02 438 4.04

  31  0.288  0.797  0.699- 181 2.06  67 2.07  35 2.78  50 2.82  23 3.10  16 3.46  26 3.51 441 4.26
                           437 4.28
  32  0.577  0.781  0.793-  46 2.74  10 2.74  47 2.78  20 2.81  41 2.99  39 3.12  21 3.15  48 3.50

[...]

  34  0.243  0.574  0.709- 182 2.11  44 2.68  27 2.80  26 2.83  14 2.95   9 3.07 432 4.17
  35  0.282  0.728  0.766-  26 2.70  23 2.75   4 2.77  31 2.78  27 2.81
  36  0.603  0.431  0.788-  33 2.77  15 2.79  12 2.79   6 2.80  17 2.80  28 3.13   8 3.27
  37  0.515  0.586  0.678-  87 2.11 120 2.16  25 2.70  38 2.78  22 2.90   8 2.90 505 3.13  29 3.29
                            19 3.33 434 3.54  11 3.58 445 4.05
  38  0.562  0.589  0.763-  37 2.78   8 2.80  22 2.85   3 2.86   5 2.89  39 2.91  29 2.92  19 2.99
                            48 3.00  33 3.02
  39  0.514  0.684  0.777-  25 2.69  21 2.74  41 2.84  20 2.91  38 2.91  24 2.94  48 3.01  32 3.12
                            22 3.41   5 3.46  29 3.53
  40  0.765  0.544  0.706- 113 2.01  18 2.72   1 2.78  19 2.80  17 2.87 421 3.72 439 4.21
  41  0.463  0.756  0.830-  23 2.81  39 2.84   4 2.85  20 2.88  24 2.89  46 2.93  32 2.99
  42  0.441  0.383  0.697- 189 2.01  78 2.15  15 2.73  28 2.78  45 2.85  11 3.60 433 3.90 442 4.34

  43  0.431  0.498  0.816-   7 2.78  45 2.80  33 2.87  22 2.91  15 2.94  14 2.98  13 3.03   8 3.17

[...]

  48  0.636  0.666  0.800-   1 2.72  10 2.78  20 2.79   5 2.81  29 2.93  38 3.00  39 3.01   3 3.20
                            32 3.50
  49  0.733  0.692  0.694-  75 2.10 117 2.10  10 2.68   1 2.71  29 2.80   2 3.23 429 3.42 385 3.74

  50  0.388  0.852  0.706-  77 2.07  16 2.75  23 2.79  31 2.82  46 2.83 437 3.65 425 4.18
  51  0.832  0.699  0.500- 547 1.89 487 2.05 460 2.76 395 2.79 431 2.86 385 3.10
  52  0.249  0.453  0.642- 512 1.94   9 2.06 432 2.59 440 2.67
  53  0.500  0.696  0.500- 491 1.98 543 1.98 418 2.70 466 2.80 445 2.82 382 2.95
  54  0.500  0.898  0.501- 522 1.98 546 1.99 382 2.68 465 2.82 407 2.87 425 3.24
  55  0.500  0.498  0.500- 492 1.96 544 2.00 423 2.79 469 2.79 418 2.83 434 2.86
  56  0.917  0.650  0.361- 551 1.97 451 2.79 395 2.79
  57  0.251  0.249  0.641- 510 1.80 443 2.49 442 2.50
  58  0.833  0.900  0.499- 494 1.94 488 2.02 450 2.75 431 2.76 406 2.82
  59  0.583  0.455  0.634- 508 1.97  12 2.03 434 2.54 439 2.67
  60  0.248  0.659  0.629- 506 1.99  26 2.03 441 2.55 436 2.55
  61  0.592  0.651  0.640- 505 1.98  29 2.08 429 2.64 445 2.84
  62  0.582  0.252  0.639- 509 1.80 438 2.51 433 2.52
  63  0.914  0.850  0.642- 500 1.79 422 2.48 398 2.52
  64  0.915  0.450  0.639- 486 1.80 428 2.51 421 2.52
  65  0.833  0.498  0.499- 499 1.89 483 2.04 446 2.77 420 2.78 460 2.83 421 3.15
  66  0.914  0.649  0.643- 533 1.79 427 2.45 385 2.55
  67  0.261  0.840  0.647- 507 1.97  31 2.07 437 2.80 435 2.91
  68  0.833  0.300  0.500- 511 1.95 545 2.02 420 2.75 464 2.79 417 2.81
  69  0.418  0.252  0.639- 520 1.81 442 2.51 433 2.53
  70  0.168  0.700  0.500- 496 1.89 490 2.06 419 2.79 463 2.79 383 2.83 436 3.07
  71  0.916  0.250  0.641- 504 1.80 426 2.49 394 2.50
  72  0.747  0.253  0.639- 518 1.80 438 2.48 426 2.49
  73  0.747  0.450  0.640- 517 2.00  30 2.06 439 2.63 421 2.74
  74  0.741  0.848  0.640- 516 1.98   2 2.04 430 2.59 422 2.72
  75  0.752  0.657  0.635- 515 1.92  49 2.10 385 2.61 429 2.68
[...]
  375          m_alltoall_d                         19.760059                       1026   4
  376        fftwav_mpi                            1.983884                          342   3
  377          fft3d_mpi                             1.798756                        342   4
  378            fftbrc_mpi                            1.564742                      342   5
  379              fftbas_plan_mpi                       1.563697                    342   6
  380                dfftw_execute                         0.661351                 1026   7
  381                map_forward                           0.695210                  684   7
  382                  map_gather                            0.039891                342   8
  383                  m_alltoallv_z                         0.442684                342   8
  384                  map_scatter                           0.084573                342   8
  385        hamilt_local                          1.481591                          342   3
  386          vhamil                                0.200904                        342   4
  387          kinhamil                              1.277711                        342   4
  388            fftext_mpi                            1.263557                      342   5
  389              fft3d_mpi                             1.233824                    342   6
  390                fftbrc_mpi                            1.034664                  342   7
  391                  fftbas_plan_mpi                       1.033434                342   8
  392                    dfftw_execute                         0.569731             1026   9
  393                    map_backward                          0.259358              684   9
  394                      map_gather                            0.074474            342  10
  395                      m_alltoallv_z                         0.117720            342  10
  396                      map_scatter                           0.061201            342  10
  397        redis_pw                              3.554581                          690   3
  398          m_alltoall_d                          3.511488                       1026   4
  399        orth1                                 0.965502                          342   3
  400        m_sumb_d                              4.850952                            6   3
  401        shift_bands_between_low_high          0.000010                            6   3
  402        lincom                                1.203963                            6   3
  403      set_charge                            2.295694                              6   2
  404        soft_charge                           1.845634                            6   3
  405          fftwav_mpi                            1.374487                        288   4
  406            fft3d_mpi                             1.233135                      288   5
  407              fftbrc_mpi                            1.042539                    288   6
  408                fftbas_plan_mpi                       1.041595                  288   7
  409                  dfftw_execute                         0.550371                864   8
  410                  map_forward                           0.307418                576   8
  411                    map_gather                            0.031767              288   9
  412                    m_alltoallv_z                         0.105795              288   9
  413                    map_scatter                           0.068875              288   9
  414          pw_charge                             0.163164                        288   4
  415          m_sumb_d                              0.195482                          6   4
  416          fft_gq                                0.100886                          6   4
  417            fft3d_mpi                             0.099615                        6   5
  418              fftbrc_mpi                            0.097410                      6   6
  419                fftbas_plan_mpi                       0.097394                    6   7
  420                  dfftw_execute                         0.006409                 18   8
  421                  map_backward                          0.087386                 12   8
  422                    map_gather                            0.003125               12   9
  423                    m_alltoallv_z                         0.083285               12   9
  424                    map_scatter                           0.000810               12   9
  425        depsum                                0.125311                            6   3
  426          m_sumb_d                              0.122050                          6   4
  427        augmentation_charge                   0.323397                            6   3
  428          m_sumb_d                              0.020863                          6   4
  429          fft3d_mpi                             0.071378                          6   4
  430            fftbrc_mpi                            0.069381                        6   5
  431              fftbas_plan_mpi                       0.069362                      6   6
  432                dfftw_execute                         0.007349                   18   7
  433                map_backward                          0.057288                   12   7
  434                  map_gather                            0.003623                  6   8
  435                  m_alltoallv_z                         0.052956                  6   8
  436                  map_scatter                           0.000600                  6   8

 Flat profile

 edwav                               22655.479078        1000
 m_sumb_d                             1946.451024      448966
 m_alltoall_d                         1419.279506      983090
 m_alltoallv_z                        1417.758796      280492
 potlok                               1328.344664        1014
 choleski                              651.143303        1007
 total_time                            636.886410           1
 lincom                                538.039098        3025
 dfftw_execute                         473.137428      835413
 eddiag                                387.041795         513
 ggaall_grid                           279.925215        1245
 orth1                                 246.163109       89796
 fftbas_plan_mpi                       180.163333      278471
 eddav                                 159.005855           5
 fft3d_mpi                             151.702790      278471
 map_scatter                            82.377482      280492
 fftwav_mpi                             72.132095      141344
 eccp                                   67.531056      114285
 map_gather                             60.627754      280492
 racc0                                  55.020452       29552
 map_forward                            51.601491      360024
 rpro1                                  50.881045       29267
 m_bcast_z                              43.666350        2793
 setdij_                                42.587354        1197
 augmentation_charge                    39.491958        1007
 pw_charge                              26.635446       48097
 orthch                                 24.401991        1007
 vhamil                                 17.978367       30293
 w1_dscal                               11.903834       28500
 lapack                                 11.139132        1052
 m_bcast_d                              10.724653        4199
 redis_pw                                9.969796      120890
 force_and_stress                        9.373985           7
 fftext_mpi                              5.606217       58793
 rpromu                                  4.603571        1365
 rspher_all                              3.986574          92
 redis_proj                              3.837569      100208
 ggemm                                   3.675627        1337
 elmin_all                               2.791476           7
 rpromu_gemm                             2.468502      379470
 overl                                   2.277144       32339
 soft_charge                             1.875137        1007
 map_backward                            1.818153      196918
 forloc                                  1.469236           7
 forhar                                  1.465041           7
 rsp                                     1.453058        2035
 kinhamil                                1.314653       30293
 stufak                                  0.958709           7
 fftbrc_mpi                              0.942843      278471
 densta                                  0.845289        1018
 depsum                                  0.586438        1007
 set_charge                              0.390279        1007
 set_dd_paw                              0.313383        1021
 hamilt_local                            0.251652       29241
 pothar                                  0.209741        1014
 fft_gq                                  0.200398        1007
 w1_copy                                 0.143743        3156
 rpro_isp                                0.120453          91
 rcp                                     0.108903        2035
 fewald                                  0.076291        2035
 strnlr                                  0.073329           7
 apply_precond                           0.046250         767
 overl1                                  0.040649        1052
 wavpre_noio                             0.028395           6
 setup_precond                           0.028168         285
 fornlr                                  0.020014           7
 strkin                                  0.019396           7
 strehar                                 0.017344           7
 hamiltmu                                0.016574        1052
 strelo                                  0.014429           7
 newband                                 0.012871        1057
 raccmu_                                 0.011717        1052
 redis_pw_all                            0.006974        1000
 redis_pw_over_bands                     0.004654        1013
 w1_projall                              0.004023         767
 set_rsgf_all                            0.002352        1021
 fordep                                  0.001739           7
 truncate_high_frequency_w1              0.001515        1337
 potlok_metagga                          0.001416        1014
 brgrid                                  0.000545           1
 phaser                                  0.000489         596
 crpa_reader                             0.000265           1
 rotate_active_occupied_orbital          0.000126           7
 proall                                  0.000110           7
 set_dd_magatom                          0.000046          14
 vectorpot                               0.000034           1
 shift_bands_between_low_high            0.000019          13
  summed up times    33202.7091691494

 Accumulative profile

 total_time                          33202.709169           1
 elmin_all                           31911.336757           7
 edwav                               27682.336493        1000
 potlok                               3192.008407        1014
 fft3d_mpi                            2420.130070      278471
 fftbrc_mpi                           2268.427280      278471
 fftbas_plan_mpi                      2267.484437      278471
 m_sumb_d                             1946.451024      448966
 orthch                               1853.030622        1007
 m_alltoall_d                         1419.279506      983090
 m_alltoallv_z                        1417.758796      280492
 map_forward                          1034.212710      360024
 redis_proj                            898.582411      100208
 fftwav_mpi                            705.039114      141344
 choleski                              651.143303        1007
 eddiag                                620.304804         513
 map_backward                          579.970966      196918
 lincom                                538.039098        3025
 redis_pw                              534.504460      120890
 dfftw_execute                         473.137428      835413
 set_charge                            384.109493        1007
 soft_charge                           315.856841        1007
 ggaall_grid                           279.925215        1245
 eddav                                 251.126143           5
 orth1                                 246.163109       89796
 fftext_mpi                            218.682806       58793
 hamilt_local                          126.414587       29241
 kinhamil                              112.790390       30293
 map_scatter                            82.377482      280492
 racc0                                  79.472069       29552
 eccp                                   75.099541      114285
 redis_pw_over_bands                    73.389069        1013
 redis_pw_all                           73.384415        1000
 setdij_                                72.712908        1197
 force_and_stress                       72.080384           7
 map_gather                             60.627754      280492
 augmentation_charge                    60.606117        1007
 rpro1                                  58.435321       29267
 m_bcast_z                              43.666350        2793
 densta                                 42.626689        1018
 rpro_isp                               32.356465          91
 strnlr                                 27.405300           7
 pw_charge                              26.635446       48097
 vhamil                                 17.978367       30293
 set_dd_paw                             16.030782        1021
 w1_dscal                               11.903834       28500
 lapack                                 11.139132        1052
 m_bcast_d                              10.724653        4199
 fornlr                                  9.507383           7
 fft_gq                                  9.285725        1007
 rpromu                                  7.791850        1365
 depsum                                  7.256256        1007
 hamiltmu                                6.851963        1052
 rspher_all                              3.986574          92
 pothar                                  3.909030        1014
 ggemm                                   3.675627        1337
 newband                                 3.028863        1057
 proall                                  2.532665           7
 rpromu_gemm                             2.468502      379470
 fordep                                  2.377949           7
 overl                                   2.277144       32339
 raccmu_                                 2.229567        1052
 fewald                                  2.132238        2035
 forhar                                  1.599644           7
 forloc                                  1.592707           7
 w1_projall                              1.514950         767
 rsp                                     1.453058        2035
 stufak                                  0.958709           7
 wavpre_noio                             0.851118           6
 w1_copy                                 0.143743        3156
 rcp                                     0.108903        2035
 apply_precond                           0.046250         767
 overl1                                  0.040649        1052
 strelo                                  0.040275           7
 setup_precond                           0.039836         285
 strkin                                  0.025735           7
 strehar                                 0.024222           7
 set_rsgf_all                            0.002352        1021
 truncate_high_frequency_w1              0.001515        1337
 potlok_metagga                          0.001416        1014
 brgrid                                  0.000545           1
 phaser                                  0.000489         596
 crpa_reader                             0.000265           1
 rotate_active_occupied_orbital          0.000126           7
 set_dd_magatom                          0.000046          14
 vectorpot                               0.000034           1
 shift_bands_between_low_high            0.000019          13

Profiling took   7.055444  2.261695  0.007198  0.006264 seconds
Profiling took   8.728419 seconds