 vasp.6.3.2 27Jun22 (build Jan 03 2024 23:05:41) complex

 executed on           IFC15_impi date 2024.03.20  22:32:06

 INCAR:
   ENCUT = 500.000000
   SIGMA = 0.010000
   EDIFF = 1.00e-05
   ALGO = A
   ISMEAR = 0
   NELM = 200
   NSW = 500
   NCORE = 8
   LCHARG = .FALSE.
   LWAVE = .FALSE.
   LREAL = Auto
   IBRION = 2
   EDIFFG = -0.02
   DIPOL = 0.5 0.5 0.5
   IDIPOL = 3
   LDIPOL = .TRUE.
   GGA = BF
   LUSE_VDW = .TRUE.
   ZAB_VDW = -1.8867
   LBEEFENS = .TRUE.

 POTCAR:    PAW_PBE Cu 22Jun2005
|               ----> ADVICE to this user running VASP <----                  |
|     You have switched on vdW-DFT.                                           |
|     This routine was written and supplied by Jiri Klimes. We recommend      |
|     that you carefully read and cite the following publications:            |
|       J. Klimes, D.R. Bowler, A. Michelides                                 |
|          J. Phys.: Cond Matt. 22 022201 (2010)                              |
|       J. Klimes, D.R. Bowler, A. Michelides                                 |
|          Phys. Rev. B. 83, 195131 (2011)                                    |
|     and references therein.                                                 |

   TITEL  = PAW_PBE Cu 22Jun2005
   POMASS =   63.546; ZVAL   =   11.000    mass and valenz
   ENMAX  =  295.446; ENMIN  =  221.585 eV

 Optimization of the real space projectors (new method)

 maximal supplied QI-value         = 16.25
 optimisation between [QCUT,QGAM] = [ 11.38, 22.75] = [ 36.24,144.96] Ry
 Optimized for a Real-space Cutoff    1.52 Angstroem

   l    n(q)    QCUT    max X(q) W(low)/X(q) W(high)/X(q)  e(spline)
   2      9    11.376     4.610    0.21E-03    0.10E-03    0.26E-06
   2      9    11.376     8.522    0.33E-03    0.16E-03    0.37E-06
   0     10    11.376    51.609    0.62E-04    0.20E-04    0.13E-06
   0     10    11.376    27.747    0.54E-04    0.20E-04    0.13E-06
   1     10    11.376    20.408    0.13E-04    0.99E-04    0.19E-06
   1     10    11.376    13.425    0.12E-04    0.87E-04    0.17E-06
|               ----> ADVICE to this user running VASP <----                  |
|     You enforced a specific xc type in the INCAR file but a different       |
|     type was found in the POTCAR file.                                      |
|     I HOPE YOU KNOW WHAT YOU ARE DOING!                                     |

  PAW_PBE Cu 22Jun2005                  :

 POSCAR: Cu
  positions in cartesian coordinates
 exchange correlation table for  LEXCH =       17
   RHO(1)=    0.500       N(1)  =     2000
   RHO(2)=  100.500       N(2)  =     4000

 VTST: version 4.1, (05/19/21)

 CHAIN: initializing optimizer

 OPT: Using VASP Conjugate-Gradient optimizer
 CHAIN: Read ICHAIN            0

 POSCAR: Cu
  positions in cartesian coordinates

 ion  position               nearest neighbor table
   1  0.333  0.083  0.644-  38 2.55  37 2.55   2 2.55  31 2.55  14 2.55   6 2.55  13 2.55
   2  0.333  0.250  0.644-  38 2.55  39 2.55   1 2.55   3 2.55  32 2.55  15 2.55  14 2.55
   3  0.333  0.417  0.644-  39 2.55  40 2.55   2 2.55  33 2.55  15 2.55   4 2.55  16 2.55
   4  0.333  0.583  0.644-  41 2.55  40 2.55   5 2.55  34 2.55  17 2.55   3 2.55  16 2.55
   5  0.333  0.750  0.644-  41 2.55  42 2.55   4 2.55   6 2.55  35 2.55  18 2.55  17 2.55
   6  0.333  0.917  0.644-  42 2.55  37 2.55   5 2.55  36 2.55  18 2.55   1 2.55  13 2.55
   7  0.833  0.083  0.644-  44 2.55  43 2.55   8 2.55  25 2.55  20 2.55  12 2.55  19 2.55
   8  0.833  0.250  0.644-  44 2.55  45 2.55   7 2.55   9 2.55  26 2.55  21 2.55  20 2.55
   9  0.833  0.417  0.644-  45 2.55  46 2.55   8 2.55  27 2.55  21 2.55  10 2.55  22 2.55
  10  0.833  0.583  0.644-  47 2.55  46 2.55  11 2.55  28 2.55  23 2.55   9 2.55  22 2.55
  11  0.833  0.750  0.644-  47 2.55  48 2.55  10 2.55  12 2.55  29 2.55  24 2.55  23 2.55
  12  0.833  0.917  0.644-  48 2.55  43 2.55  11 2.55  30 2.55  24 2.55   7 2.55  19 2.55
  13  0.167  0.000  0.618-  49 2.55  54 2.55  14 2.55  18 2.55  37 2.55  30 2.55  25 2.55   6 2.55
                             1 2.55
  14  0.167  0.167  0.618-  49 2.55  50 2.55  25 2.55  13 2.55  38 2.55  26 2.55   1 2.55  15 2.55
                             2 2.55
  15  0.167  0.333  0.618-  51 2.55  50 2.55  27 2.55  16 2.55  39 2.55  26 2.55   3 2.55  14 2.55
                             2 2.55
  16  0.167  0.500  0.618-  51 2.55  52 2.55  15 2.55  17 2.55  40 2.55  28 2.55  27 2.55   4 2.55
                             3 2.55
  17  0.167  0.667  0.618-  52 2.55  53 2.55  28 2.55  16 2.55  41 2.55  29 2.55   4 2.55  18 2.55
                             5 2.55
  18  0.167  0.833  0.618-  54 2.55  53 2.55  30 2.55  13 2.55  42 2.55  29 2.55   6 2.55  17 2.55
                             5 2.55
  19  0.667  0.000  0.618-  55 2.55  60 2.55  20 2.55  24 2.55  43 2.55  36 2.55  31 2.55  12 2.55
                             7 2.55
  20  0.667  0.167  0.618-  55 2.55  56 2.55  31 2.55  19 2.55  44 2.55  32 2.55   7 2.55  21 2.55
                             8 2.55
  21  0.667  0.333  0.618-  57 2.55  56 2.55  33 2.55  22 2.55  45 2.55  32 2.55   9 2.55  20 2.55
                             8 2.55
  22  0.667  0.500  0.618-  57 2.55  58 2.55  21 2.55  23 2.55  46 2.55  34 2.55  33 2.55  10 2.55
                             9 2.55
  23  0.667  0.667  0.618-  58 2.55  59 2.55  34 2.55  22 2.55  47 2.55  35 2.55  10 2.55  24 2.55
                            11 2.55
  24  0.667  0.833  0.618-  60 2.55  59 2.55  36 2.55  19 2.55  48 2.55  35 2.55  12 2.55  23 2.55
                            11 2.55
  25  0.000  0.083  0.592-  62 2.55  44 2.55  49 2.55  61 2.55  43 2.55  14 2.55  26 2.55  13 2.55
                             7 2.55  30 2.55
  26  0.000  0.250  0.592-  50 2.55  62 2.55  63 2.55  45 2.55  44 2.55  27 2.55  25 2.55  15 2.55
                            14 2.55   8 2.55
  27  0.000  0.417  0.592-  63 2.55  45 2.55  51 2.55  64 2.55  46 2.55  15 2.55  26 2.55  16 2.55
                             9 2.55  28 2.55
  28  0.000  0.583  0.592-  65 2.55  47 2.55  52 2.55  64 2.55  46 2.55  17 2.55  29 2.55  16 2.55
                            10 2.55  27 2.55
  29  0.000  0.750  0.592-  53 2.55  65 2.55  66 2.55  48 2.55  47 2.55  30 2.55  28 2.55  18 2.55
                            17 2.55  11 2.55
  30  0.000  0.917  0.592-  66 2.55  48 2.55  54 2.55  61 2.55  43 2.55  18 2.55  29 2.55  13 2.55
                            12 2.55  25 2.55
  31  0.500  0.083  0.592-  68 2.55  38 2.55  55 2.55  67 2.55  37 2.55  20 2.55  32 2.55  19 2.55
                             1 2.55  36 2.55
  32  0.500  0.250  0.592-  56 2.55  68 2.55  69 2.55  39 2.55  38 2.55  33 2.55  31 2.55  21 2.55
                            20 2.55   2 2.55
  33  0.500  0.417  0.592-  69 2.55  39 2.55  57 2.55  70 2.55  40 2.55  21 2.55  32 2.55  22 2.55
                             3 2.55  34 2.55
  34  0.500  0.583  0.592-  71 2.55  41 2.55  58 2.55  70 2.55  40 2.55  23 2.55  35 2.55  22 2.55
                             4 2.55  33 2.55
  35  0.500  0.750  0.592-  59 2.55  71 2.55  72 2.55  42 2.55  41 2.55  36 2.55  34 2.55  24 2.55
                            23 2.55   5 2.55
  36  0.500  0.917  0.592-  72 2.55  42 2.55  60 2.55  67 2.55  37 2.55  24 2.55  35 2.55  19 2.55
                             6 2.55  31 2.55
  37  0.333  0.000  0.566-   1 2.55   6 2.55  31 2.55  36 2.55  38 2.55  42 2.55  13 2.55  67 2.55
                            54 2.55  49 2.55  73 2.55  78 2.55
  38  0.333  0.167  0.566-   1 2.55  31 2.55   2 2.55  32 2.55  37 2.55  14 2.55  68 2.55  49 2.55
                            73 2.55  39 2.55  50 2.55  74 2.55
  39  0.333  0.333  0.566-   3 2.55  33 2.55   2 2.55  32 2.55  40 2.55  15 2.55  69 2.55  51 2.55
                            75 2.55  38 2.55  50 2.55  74 2.55
  40  0.333  0.500  0.566-   3 2.55   4 2.55  33 2.55  34 2.55  39 2.55  41 2.55  16 2.55  70 2.55
                            52 2.55  51 2.55  75 2.55  76 2.55
  41  0.333  0.667  0.566-   4 2.55  34 2.55   5 2.55  35 2.55  40 2.55  17 2.55  71 2.55  52 2.55
                            76 2.55  42 2.55  53 2.55  77 2.55
  42  0.333  0.833  0.566-   6 2.55  36 2.55   5 2.55  35 2.55  37 2.55  18 2.55  72 2.55  54 2.55
                            78 2.55  41 2.55  53 2.55  77 2.55
  43  0.833  0.000  0.566-   7 2.55  12 2.55  25 2.55  30 2.55  44 2.55  48 2.55  19 2.55  61 2.55
                            60 2.55  55 2.55  79 2.55  84 2.55
  44  0.833  0.167  0.566-   7 2.55  25 2.55   8 2.55  26 2.55  43 2.55  20 2.55  62 2.55  55 2.55
                            79 2.55  45 2.55  56 2.55  80 2.55
  45  0.833  0.333  0.566-   9 2.55  27 2.55   8 2.55  26 2.55  46 2.55  21 2.55  63 2.55  57 2.55
                            81 2.55  44 2.55  56 2.55  80 2.55
  46  0.833  0.500  0.566-   9 2.55  10 2.55  27 2.55  28 2.55  45 2.55  47 2.55  22 2.55  64 2.55
                            58 2.55  57 2.55  81 2.55  82 2.55
  47  0.833  0.667  0.566-  10 2.55  28 2.55  11 2.55  29 2.55  46 2.55  23 2.55  65 2.55  58 2.55
                            82 2.55  48 2.55  59 2.55  83 2.55
  48  0.833  0.833  0.566-  12 2.55  30 2.55  11 2.55  29 2.55  43 2.55  24 2.55  66 2.55  60 2.55
                            84 2.55  47 2.55  59 2.55  83 2.55
  49  0.167  0.083  0.539-  14 2.55  25 2.55  13 2.55  62 2.55  50 2.55  61 2.55  38 2.55  86 2.55
                            54 2.55  37 2.55  73 2.55  85 2.55
  50  0.167  0.250  0.539-  26 2.55  15 2.55  14 2.55  49 2.55  51 2.55  62 2.55  63 2.55  38 2.55
                            39 2.55  74 2.55  86 2.55  87 2.55
  51  0.167  0.417  0.539-  15 2.55  27 2.55  16 2.55  63 2.55  50 2.55  64 2.55  39 2.55  87 2.55
                            52 2.55  40 2.55  75 2.55  88 2.55
  52  0.167  0.583  0.539-  17 2.55  28 2.55  16 2.55  65 2.55  53 2.55  64 2.55  41 2.55  89 2.55
                            51 2.55  40 2.55  76 2.55  88 2.55
  53  0.167  0.750  0.539-  29 2.55  18 2.55  17 2.55  52 2.55  54 2.55  65 2.55  66 2.55  41 2.55
                            42 2.55  77 2.55  89 2.55  90 2.55
  54  0.167  0.917  0.539-  18 2.55  30 2.55  13 2.55  66 2.55  53 2.55  61 2.55  42 2.55  90 2.55
                            49 2.55  37 2.55  78 2.55  85 2.55
  55  0.667  0.083  0.539-  20 2.55  31 2.55  19 2.55  68 2.55  56 2.55  67 2.55  44 2.55  92 2.55
                            60 2.55  43 2.55  79 2.55  91 2.55
  56  0.667  0.250  0.539-  32 2.55  21 2.55  20 2.55  55 2.55  57 2.55  68 2.55  69 2.55  44 2.55
                            45 2.55  80 2.55  92 2.55  93 2.55
  57  0.667  0.417  0.539-  21 2.55  33 2.55  22 2.55  69 2.55  56 2.55  70 2.55  45 2.55  93 2.55
                            58 2.55  46 2.55  81 2.55  94 2.55
  58  0.667  0.583  0.539-  23 2.55  34 2.55  22 2.55  71 2.55  59 2.55  70 2.55  47 2.55  95 2.55
                            57 2.55  46 2.55  82 2.55  94 2.55
  59  0.667  0.750  0.539-  35 2.55  24 2.55  23 2.55  58 2.55  60 2.55  71 2.55  72 2.55  47 2.55
                            48 2.55  83 2.55  95 2.55  96 2.55
  60  0.667  0.917  0.539-  24 2.55  36 2.55  19 2.55  72 2.55  59 2.55  67 2.55  48 2.55  96 2.55
                            55 2.55  43 2.55  84 2.55  91 2.55
[...]
  393                  map_gather                            0.200878                510   8
  394                  m_alltoallv_z                         0.290413                510   8
  395                  map_scatter                           0.253667                510   8
  396        hamilt_local                          2.550346                          510   3
  397          vhamil                                0.277444                        510   4
  398          kinhamil                              2.268638                        510   4
  399            fftext_mpi                            2.226587                      510   5
  400              fft3d_mpi                             2.137831                    510   6
  401                fftbas_mpi                            2.136177                  510   7
  402                  fftbas_plan_mpi                       2.134704                510   8
  403                    dfftw_execute                         1.108460             1530   9
  404                    map_backward                          0.753307             1020   9
  405                      map_gather                            0.248400            510  10
  406                      m_alltoallv_z                         0.256475            510  10
  407                      map_scatter                           0.238915            510  10
  408        redis_pw                              1.122739                         1037   3
  409          m_alltoall_d                          1.009426                       1530   4
  410        orth1                                 1.741089                          510   3
  411        m_sumb_d                              1.279824                           17   3
  412        shift_bands_between_low_high          0.000024                           17   3
  413        lincom                                2.496644                           17   3
  414      set_charge                           16.844823                             17   2
  415        soft_charge                           2.460225                           17   3
  416          fftwav_mpi                            2.047258                        425   4
  417            fft3d_mpi                             1.836316                      425   5
  418              fftbas_mpi                            1.834665                    425   6
  419                fftbas_plan_mpi                       1.833431                  425   7
  420                  dfftw_execute                         0.911773               1275   8
  421                  map_forward                           0.694371                850   8
  422                    map_gather                            0.150155              425   9
  423                    m_alltoallv_z                         0.211764              425   9
  424                    map_scatter                           0.199706              425   9
  425          pw_charge                             0.212939                        425   4
  426          m_sumb_d                              0.118476                         17   4
  427          fft_gq                                0.065490                         17   4
  428            fft3d_mpi                             0.062304                       17   5
  429              fftbrc_mpi                            0.056695                     17   6
  430                fftbas_plan_mpi                       0.056651                   17   7
  431                  dfftw_execute                         0.013285                 51   8
  432                  map_backward                          0.033189                 34   8
  433                    map_gather                            0.006441               34   9
  434                    m_alltoallv_z                         0.024688               34   9
  435                    map_scatter                           0.001643               34   9
  436        m_sumb_d                              0.684189                           17   3
  437        depsum                                0.027654                           17   3
  438          m_sumb_d                              0.010810                         17   4
  439        augmentation_charge                   0.384747                           17   3
  440          m_sumb_d                              0.015824                         17   4
  441          fft3d_mpi                             0.065212                         17   4
  442            fftbrc_mpi                            0.062898                       17   5
  443              fftbas_plan_mpi                       0.062848                     17   6
  444                dfftw_execute                         0.010839                   51   7
  445                map_backward                          0.041446                   34   7
  446                  map_gather                            0.004968                 17   8
  447                  m_alltoallv_z                         0.033740                 17   8
  448                  map_scatter                           0.002435                 17   8

 Flat profile

 edwav                                2082.818462         642
 potlok                                769.432750         678
 set_charge                            522.719712         660
 lincom                                249.088293        1984
 dfftw_execute                         198.791820      395181
 m_alltoallv_z                         188.520318      133065
 m_sumb_d                              175.408585      183969
 m_alltoall_d                          121.337627      339811
 ggaall_grid                           111.134171        1272
 orth1                                 106.711327       31869
 eddiag                                 97.610498         356
 choleski                               85.068487         660
 fftbas_plan_mpi                        77.417010      131727
 map_scatter                            50.599717      133065
 map_gather                             40.766262      133065
 total_time                             32.988480           1
 fftwav_mpi                             27.183271       54236
 eccp                                   22.779055       38670
 eddav                                  20.698132           5
 force_and_stress                       20.435279          18
 racc0                                  19.338921       10093
 rpro1                                  18.506412        9943
 map_forward                            17.614143      164548
 crrexp_mul_wave                        13.998040     2442672
 setdij_                                12.559151        1147
 crrexp_mul_work_add                    12.396410     1453392
 augmentation_charge                    11.698470         660
 fft3d_mpi                               9.507812      131727
 rspher_all                              8.837480         235
 pw_charge                               8.287500       16500
 phaser                                  7.602007         560
 rpromu_gemm                             7.005319      269568
 redis_pw                                6.882660       43545
 vhamil                                  5.993860       11143
 fftext_mpi                              5.167382       20773
 orthch                                  4.075140         660
 w1_dscal                                3.652757        9630
 m_bcast_z                               3.611980        1453
 lapack                                  2.890978         463
 ggemm                                   2.756324         613
 rpromu                                  2.226088        1872
 overl                                   1.776965       11743
 m_bcast_d                               1.692265        1677
 elmin_all                               1.617814          18
 redis_proj                              1.502416       37673
 forloc                                  1.497366          18
 forhar                                  1.486084          18
 stufak                                  0.988977          18
 kinhamil                                0.955117       11143
 map_backward                            0.919410       98906
 rsp                                     0.844723        1374
 depsum                                  0.658304         660
 soft_charge                             0.600983         660
 densta                                  0.357194         671
 inisym                                  0.280882           1
 strnlr                                  0.233879          18
 fftbas_mpi                              0.232172       75009
 pothar                                  0.230291         678
 set_dd_paw                              0.211297         696
 fftbrc_mpi                              0.172165       56718
 fft_gq                                  0.122593         660
 w1_copy                                 0.113734        1389
 hamilt_local                            0.090603       10680
 rpro_isp                                0.086126         234
 fornlr                                  0.077490          18
 rcp                                     0.068930        1374
 strkin                                  0.058220          18
 wavpre_noio                             0.033238          17
 setup_precond                           0.029812         150
 apply_precond                           0.028801         313
 strelo                                  0.026079          18
 overl1                                  0.024327         463
 fewald                                  0.023746        1374
 strehar                                 0.022982          18
 newband                                 0.007599         468
 hamiltmu                                0.007507         463
 posmap                                  0.006680           2
 redis_pw_all                            0.005285         642
 raccmu_                                 0.004532         463
 fordep                                  0.004199          18
 redis_pw_over_bands                     0.002807         677
 w1_projall                              0.001602         313
 set_rsgf_all                            0.001143         696
 potlok_metagga                          0.000794         678
 brgrid                                  0.000671           1
 truncate_high_frequency_w1              0.000590         613
 proall                                  0.000364          18
 crpa_reader                             0.000308           1
 rotate_active_occupied_orbital          0.000133          18
 set_dd_magatom                          0.000056          36
 shift_bands_between_low_high            0.000047          35
 vectorpot                               0.000025           1
  summed up times    5203.22741699219

 Accumulative profile

 total_time                           5203.227417           1
 elmin_all                            4864.890641          18
 edwav                                3020.308873         642
 potlok                               1131.068005         678
 set_charge                            662.646728         660
 fft3d_mpi                             584.540828      131727
 fftbas_plan_mpi                       574.628679      131727
 fftbas_mpi                            325.704594       75009
 orthch                                273.714218         660
 fftwav_mpi                            265.824520       54236
 fftbrc_mpi                            249.328422       56718
 lincom                                249.088293        1984
 dfftw_execute                         198.791820      395181
 m_alltoallv_z                         188.520318      133065
 map_forward                           183.929015      164548
 eddiag                                176.375141         356
 m_sumb_d                              175.408585      183969
 m_alltoall_d                          121.337627      339811
 map_backward                          114.490835       98906
 ggaall_grid                           111.134171        1272
 orth1                                 106.711327       31869
 force_and_stress                       95.847885          18
 soft_charge                            95.751610         660
 fftext_mpi                             92.537926       20773
 choleski                               85.068487         660
 redis_pw                               75.496784       43545
 redis_proj                             54.225919       37673
 hamilt_local                           53.180484       10680
 map_scatter                            50.599717      133065
 rpro_isp                               49.873558         234
 kinhamil                               49.443665       11143
 eddav                                  43.981962           5
 strnlr                                 43.531753          18
 map_gather                             40.766262      133065
 racc0                                  33.653731       10093
 rpro1                                  28.469383        9943
 eccp                                   24.670901       38670
 setdij_                                15.557647        1147
 rpromu                                 15.512799        1872
 redis_pw_over_bands                    15.087725         677
 redis_pw_all                           15.084918         642
 augmentation_charge                    14.890950         660
 fornlr                                 14.626311          18
 crrexp_mul_wave                        13.998040     2442672
 crrexp_mul_work_add                    12.396410     1453392
 rspher_all                              8.837480         235
 pw_charge                               8.287500       16500
 set_dd_paw                              8.143289         696
 phaser                                  7.602007         560
 rpromu_gemm                             7.005319      269568
 vhamil                                  5.993860       11143
 proall                                  4.121944          18
 hamiltmu                                3.929379         463
 w1_dscal                                3.652757        9630
 m_bcast_z                               3.611980        1453
 lapack                                  2.890978         463
 densta                                  2.849085         671
 ggemm                                   2.756324         613
 fft_gq                                  2.521401         660
 overl                                   1.776965       11743
 m_bcast_d                               1.692265        1677
 raccmu_                                 1.574228         463
 forloc                                  1.512748          18
 forhar                                  1.506815          18
 fordep                                  1.421478          18
 depsum                                  1.382492         660
 newband                                 1.111875         468
 fewald                                  1.011397        1374
 stufak                                  0.988977          18
 wavpre_noio                             0.967195          17
 w1_projall                              0.898024         313
 rsp                                     0.844723        1374
 pothar                                  0.646755         678
 inisym                                  0.287562           1
 w1_copy                                 0.113734        1389
 rcp                                     0.068930        1374
 strkin                                  0.068606          18
 strelo                                  0.042457          18
 setup_precond                           0.035414         150
 strehar                                 0.033084          18
 apply_precond                           0.028801         313
 overl1                                  0.024327         463
 posmap                                  0.006680           2
 set_rsgf_all                            0.001143         696
 potlok_metagga                          0.000794         678
 brgrid                                  0.000671           1
 truncate_high_frequency_w1              0.000590         613
 crpa_reader                             0.000308           1
 rotate_active_occupied_orbital          0.000133          18
 set_dd_magatom                          0.000056          36
 shift_bands_between_low_high            0.000047          35
 vectorpot                               0.000025           1

Profiling took   4.600313  2.146922  0.008917  0.007893 seconds
Profiling took   5.155787 seconds