 vasp.6.3.2 27Jun22 (build Apr 26 2023 23:54:53) gamma-only

 executed on           IFC15_impi date 2023.06.17  20:12:55

 INCAR:
   ENCUT = 500.000000
   SIGMA = 0.010000
   EDIFF = 1.00e-05
   ALGO = A
   ISMEAR = 0
   NELM = 200
   NSW = 500
   NCORE = 32
   LCHARG = .FALSE.
   LWAVE = .FALSE.
   LREAL = Auto
   IBRION = 2
   EDIFFG = -0.05
   GGA = BF
   LUSE_VDW = .TRUE.
   ZAB_VDW = -1.8867
   LBEEFENS = .TRUE.
   DIPOL = 0.5 0.5 0.65
   IDIPOL = 3
   LDIPOL = .TRUE.

 POTCAR:    PAW_PBE Au 04Oct2007
 POTCAR:    PAW_PBE C 08Apr2002
 POTCAR:    PAW_PBE O 08Apr2002
 POTCAR:    PAW_PBE Sr_sv 07Sep2000
 POTCAR:    PAW_PBE Ti_sv 26Sep2005
|               ----> ADVICE to this user running VASP <----                  |
|     You have switched on vdW-DFT.                                           |
|     This routine was written and supplied by Jiri Klimes. We recommend      |
|     that you carefully read and cite the following publications:            |
|       J. Klimes, D.R. Bowler, A. Michelides                                 |
|          J. Phys.: Cond Matt. 22 022201 (2010)                              |
|       J. Klimes, D.R. Bowler, A. Michelides                                 |
|          Phys. Rev. B. 83, 195131 (2011)                                    |
|     and references therein.                                                 |

   TITEL  = PAW_PBE Au 04Oct2007
   POMASS =  196.966; ZVAL   =   11.000    mass and valenz
   ENMAX  =  229.943; ENMIN  =  172.457 eV

   TITEL  = PAW_PBE C 08Apr2002
   POMASS =   12.011; ZVAL   =    4.000    mass and valenz
   ENMAX  =  400.000; ENMIN  =  300.000 eV

   TITEL  = PAW_PBE O 08Apr2002
   POMASS =   16.000; ZVAL   =    6.000    mass and valenz
   ENMAX  =  400.000; ENMIN  =  300.000 eV

   TITEL  = PAW_PBE Sr_sv 07Sep2000
   POMASS =   87.620; ZVAL   =   10.000    mass and valenz
   ENMAX  =  229.353; ENMIN  =  172.014 eV

   TITEL  = PAW_PBE Ti_sv 26Sep2005
   POMASS =   47.880; ZVAL   =   12.000    mass and valenz
   ENMAX  =  274.610; ENMIN  =  205.957 eV

 Optimization of the real space projectors (new method)

 maximal supplied QI-value         = 15.12
 optimisation between [QCUT,QGAM] = [ 11.34, 22.83] = [ 36.00,145.93] Ry
 Optimized for a Real-space Cutoff    1.39 Angstroem

   l    n(q)    QCUT    max X(q) W(low)/X(q) W(high)/X(q)  e(spline)
   2      9    11.338    60.898    0.39E-03    0.42E-03    0.21E-06
   2      9    11.338    58.894    0.40E-03    0.42E-03    0.22E-06
   0      9    11.338   109.617    0.13E-03    0.20E-04    0.13E-06
   0      9    11.338    75.026    0.13E-03    0.20E-04    0.13E-06
   1      9    11.338    16.344    0.33E-04    0.24E-03    0.18E-06
   1      9    11.338    10.160    0.26E-04    0.19E-03    0.15E-06
 Optimization of the real space projectors (new method)

[...]

   l    n(q)    QCUT    max X(q) W(low)/X(q) W(high)/X(q)  e(spline)
   0     11    11.338    11.565    0.26E-04    0.80E-05    0.70E-07
   0     11    11.338    10.214    0.41E-04    0.15E-04    0.15E-06
   1     10    11.338   189.983    0.18E-03    0.52E-04    0.42E-06
   1     10    11.338   193.105    0.19E-03    0.52E-04    0.42E-06
   2     10    11.338   115.941    0.22E-03    0.42E-03    0.43E-06
   2     10    11.338    76.444    0.21E-03    0.41E-03    0.42E-06
 Optimization of the real space projectors (new method)

 maximal supplied QI-value         = 16.25
 optimisation between [QCUT,QGAM] = [ 11.38, 22.75] = [ 36.24,144.96] Ry
 Optimized for a Real-space Cutoff    1.27 Angstroem

   l    n(q)    QCUT    max X(q) W(low)/X(q) W(high)/X(q)  e(spline)
   0      9    11.376    12.277    0.53E-04    0.25E-04    0.25E-07
   0      9    11.376    11.419    0.89E-04    0.67E-05    0.35E-07
   1      8    11.376     4.010    0.13E-03    0.11E-03    0.29E-07
   1      8    11.376     6.182    0.94E-04    0.19E-03    0.11E-06
   2      8    11.376    47.177    0.13E-03    0.88E-03    0.24E-06
   2      8    11.376    42.437    0.13E-03    0.86E-03    0.23E-06
|               ----> ADVICE to this user running VASP <----                  |
|     You enforced a specific xc type in the INCAR file but a different       |
|     type was found in the POTCAR file.                                      |
|     I HOPE YOU KNOW WHAT YOU ARE DOING!                                     |

  PAW_PBE Au 04Oct2007                  :
  PAW_PBE C 08Apr2002                   :
  PAW_PBE O 08Apr2002                   :
  PAW_PBE Sr_sv 07Sep2000               :
  PAW_PBE Ti_sv 26Sep2005               :

 POSCAR: Au  C  O Sr Ti
  positions in direct lattice
  velocities in cartesian coordinates
 exchange correlation table for  LEXCH =       17
   RHO(1)=    0.500       N(1)  =     2000
   RHO(2)=  100.500       N(2)  =     4000

 ion  position               nearest neighbor table
   1  0.717  0.526  0.753-  49 2.71  48 2.73  40 2.79  17 2.84  29 2.85   3 2.95  19 2.99
   2  0.706  0.757  0.688- 125 2.04 165 2.05  10 2.63  47 2.78 426 3.13  49 3.23 341 3.81 340 4.19

   3  0.657  0.443  0.813-  38 2.85  17 2.85   5 2.86  39 2.87  16 2.90   1 2.95  48 3.21  19 3.55

[...]

   6  0.662  0.189  0.751-  51 2.01  36 2.75  30 2.78  28 2.80  12 3.57
   7  0.472  0.449  0.878-   5 2.76  46 2.76  24 2.80  13 2.83  39 2.83
   8  0.517  0.377  0.732-  38 2.81  26 2.83  22 2.86  12 2.88  37 2.90  39 2.95  11 3.09  46 3.20
                            36 3.29 345 4.14
   9  0.283  0.338  0.702- 181 2.06  44 2.77  14 2.81  11 2.91  34 3.10 331 3.54 342 4.09
  10  0.670  0.681  0.749-   2 2.63  49 2.68  33 2.73  48 2.78  29 3.03  47 3.09  21 3.34
  11  0.398  0.382  0.690- 135 2.03 121 2.14  44 2.77  45 2.89   9 2.91  14 3.00  22 3.08   8 3.09
                           331 3.38  43 3.59 345 3.77
  12  0.617  0.322  0.696- 162 2.03  16 2.75  36 2.80  30 2.82  19 2.86   8 2.88  28 2.88 349 3.53
                             6 3.57 345 4.22
  13  0.376  0.492  0.833-  27 2.82   7 2.83  22 2.83  14 2.84   4 2.85  24 2.89  46 3.03
  14  0.326  0.414  0.769-   9 2.81  44 2.83  13 2.84  27 2.89  45 2.92  34 2.97  46 2.98  11 3.00
                            22 3.13
  15  0.422  0.698  0.699- 155 2.03  25 2.73  41 2.77  23 2.78  50 2.90  21 2.95  31 3.24 335 4.05
                           329 4.09
  16  0.700  0.346  0.757-  12 2.75  30 2.79  17 2.81  36 2.82   3 2.90  40 2.92  19 3.15
  17  0.775  0.430  0.795-  40 2.71  16 2.81   1 2.84   3 2.85
  18  0.256  0.592  0.694- 164 2.03 142 2.11  35 2.70  34 2.82  27 2.89  45 3.02  31 3.54 329 3.57
                           347 3.70
  19  0.649  0.446  0.695- 178 2.17  40 2.77  12 2.86  29 2.86   1 2.99  38 3.01  16 3.15  37 3.35
                           349 3.49   3 3.55
  20  0.564  0.639  0.861-  48 2.77  33 2.81  24 2.83  42 2.85   5 2.90  32 2.93
  21  0.543  0.666  0.701- 179 2.11  32 2.75  29 2.87  25 2.88  47 2.94  15 2.95  33 3.18  50 3.30
                            10 3.34 335 3.47
  22  0.444  0.475  0.756-  13 2.83  38 2.84  25 2.86   8 2.86  37 2.88  45 2.90  46 2.90  11 3.08
                            14 3.13  32 3.36
  23  0.373  0.738  0.778-  35 2.75  15 2.78  41 2.81  42 2.81  50 2.86   4 2.97  31 3.07
  24  0.463  0.572  0.863-   4 2.78   7 2.80  20 2.83  13 2.89   5 2.90  42 2.91  32 2.93
  25  0.452  0.580  0.703- 123 2.10  32 2.68  37 2.69  15 2.73  22 2.86  21 2.88  45 3.03 335 3.63

  26  0.487  0.269  0.775-  43 2.74  36 2.77   8 2.83  44 2.87  28 2.87  46 2.89  39 3.34
  27  0.289  0.537  0.778-  35 2.80  34 2.81  13 2.82  18 2.89  14 2.89   4 2.90  45 2.91
  28  0.558  0.211  0.711- 143 2.09   6 2.80  43 2.82  26 2.87  12 2.88  36 2.93 344 3.96
  29  0.623  0.570  0.704- 163 2.08  49 2.83   1 2.85  19 2.86  21 2.87  48 2.91  38 2.93  10 3.03
                            37 3.29  32 3.48 340 3.70
  30  0.721  0.261  0.691- 126 2.02 152 2.06   6 2.78  16 2.79  12 2.82 432 3.07 349 4.04 333 4.16

  31  0.292  0.746  0.698- 166 2.06 142 2.06  35 2.77  41 2.83  23 3.07  15 3.24  18 3.54 348 4.23
                           329 4.23
  32  0.513  0.604  0.776-  25 2.68  21 2.75  42 2.84  38 2.92  20 2.93  24 2.93  48 3.02  33 3.18
                            22 3.36   5 3.47  29 3.48
  33  0.578  0.726  0.793-  50 2.73  10 2.73  47 2.78  20 2.81  42 3.01  32 3.18  21 3.18  48 3.44

  34  0.240  0.469  0.709- 141 2.11  45 2.69  27 2.81  18 2.82  14 2.97   9 3.10 342 4.16
  35  0.284  0.661  0.765-  18 2.70  23 2.75   4 2.76  31 2.77  27 2.80
  36  0.602  0.284  0.784-   6 2.75  26 2.77  12 2.80  39 2.81  16 2.82  28 2.93   8 3.29
  37  0.514  0.485  0.678- 178 2.11  78 2.16  25 2.69  38 2.78  22 2.88   8 2.90 437 3.13  29 3.29
                            19 3.35 345 3.57 335 4.03
  38  0.563  0.486  0.762-  37 2.78   8 2.81  22 2.84   3 2.85   5 2.88  32 2.92  29 2.93  48 3.00
                            19 3.01  39 3.01
  39  0.551  0.383  0.827-  36 2.81   7 2.83   3 2.87  46 2.90   8 2.95   5 3.00  38 3.01  26 3.34

[...]

  47  0.596  0.785  0.713- 156 2.09   2 2.78  33 2.78  50 2.94  21 2.94  10 3.09 341 4.18 332 4.35

  48  0.635  0.584  0.800-   1 2.73  20 2.77  10 2.78   5 2.83  29 2.91  38 3.00  32 3.02   3 3.21
                            33 3.44
  49  0.734  0.616  0.694- 124 2.09 165 2.11  10 2.68   1 2.71  29 2.83   2 3.23 340 3.41 322 3.71

  50  0.485  0.778  0.757-  33 2.73  41 2.83  23 2.86  15 2.90  42 2.92  47 2.94  21 3.30
  51  0.727  0.131  0.751- 250 1.14   6 2.01
  52  0.415  0.812  0.548- 428 1.95 423 1.97 360 2.73 369 2.77 348 2.92 332 3.10
  53  0.251  0.063  0.547- 447 1.84 433 2.24 361 2.68 356 2.73 321 3.03 343 3.27
  54  0.746  0.558  0.545- 427 1.95 396 1.97 359 2.61 372 2.78 340 2.84 322 3.23
  55  0.749  0.808  0.546- 426 1.83 448 2.03 357 2.67 323 2.75 341 3.15 318 3.31
  56  0.250  0.314  0.546- 445 1.85 431 2.30 331 2.65 355 2.73 362 2.73 342 3.04
  57  0.583  0.311  0.545- 400 1.91 434 2.09 387 2.73 358 2.75 345 2.79 349 2.86
  58  0.253  0.813  0.551- 435 1.82 416 2.08 360 2.78 348 2.88 368 2.89 346 3.17
  59  0.583  0.062  0.546- 395 1.84 440 2.23 370 2.69 353 2.69 344 2.99 333 3.03
  60  0.586  0.815  0.550- 397 1.92 438 2.06 357 2.75 369 2.81 341 2.93 332 3.02
  61  0.748  0.311  0.548- 432 1.95 425 2.00 349 2.65 358 2.75 386 2.85 317 3.02
  62  0.581  0.560  0.549- 437 1.88 401 2.10 335 2.69 371 2.75 340 2.83 359 2.86
  63  0.252  0.559  0.544- 446 1.92 436 2.04 363 2.63 354 2.78 329 2.87 347 3.19
  64  0.416  0.320  0.553- 429 1.97 424 1.98 345 2.65 331 2.73 387 2.98 362 2.99
  65  0.577  0.436  0.552- 437 1.94 400 2.06 345 2.62 371 2.77 349 2.90 359 3.03
  66  0.417  0.065  0.547- 449 1.84 430 2.25 361 2.74 353 2.77 344 2.94 321 3.07
  67  0.085  0.813  0.547- 452 1.85 458 2.18 368 2.67 385 2.73 346 3.16 320 3.33
  68  0.082  0.564  0.546- 451 1.84 443 2.23 364 2.69 354 2.74 347 2.83
  69  0.086  0.313  0.547- 444 1.84 442 2.24 355 2.68 384 2.76 342 2.88 339 3.36
  70  0.082  0.063  0.548- 402 1.84 460 2.21 383 2.70 356 2.71 366 3.19 343 3.29
  71  0.916  0.939  0.546- 453 1.84 439 2.20 377 2.65 383 2.70 318 3.24 320 3.32
  72  0.913  0.689  0.545- 454 1.84 457 2.24 323 2.63 385 2.72 322 2.82
  73  0.584  0.938  0.546- 397 1.84 440 2.24 370 2.68 353 2.70 341 2.95 332 3.05
  74  0.917  0.189  0.545- 398 1.85 455 2.18 386 2.66 384 2.69 337 3.21 366 3.33
[...]
  379          fft3d_mpi                             8.222467                       1400   4
  380            fftbrc_mpi                            5.913963                     1400   5
  381              fftbas_plan_mpi                       5.908623                   1400   6
  382                dfftw_execute                         2.775537                 4200   7
  383                map_forward                           2.296829                 2800   7
  384                  map_gather                            0.240855               1400   8
  385                  m_alltoallv_z                         0.711352               1400   8
  386                  map_scatter                           0.413077               1400   8
  387        hamilt_local                          6.669650                         1400   3
  388          vhamil                                1.791439                       1400   4
  389          kinhamil                              4.864366                       1400   4
  390            fftext_mpi                            4.778134                     1400   5
  391              fft3d_mpi                             4.633411                   1400   6
  392                fftbrc_mpi                            3.855949                 1400   7
  393                  fftbas_plan_mpi                       3.851460               1400   8
  394                    dfftw_execute                         1.955386             4200   9
  395                    map_backward                          1.093877             2800   9
  396                      map_gather                            0.258241           1400  10
  397                      m_alltoallv_z                         0.616919           1400  10
  398                      map_scatter                           0.194671           1400  10
  399        redis_pw                              2.728086                         1410   3
  400          m_alltoall_d                          2.618298                       4200   4
  401        orth1                                 3.737545                          700   3
  402        m_sumb_d                              2.014716                           10   3
  403        shift_bands_between_low_high          0.000018                           10   3
  404        lincom                                2.914562                           10   3
  405      set_charge                            8.974924                             10   2
  406        soft_charge                           8.407877                           10   3
  407          fftwav_mpi                            6.966755                       1180   4
  408            fft3d_mpi                             6.095063                     1180   5
  409              fftbrc_mpi                            4.618843                   1180   6
  410                fftbas_plan_mpi                       4.614661                 1180   7
  411                  dfftw_execute                         2.316840               3540   8
  412                  map_forward                           1.517444               2360   8
  413                    map_gather                            0.125293             1180   9
  414                    m_alltoallv_z                         0.527341             1180   9
  415                    map_scatter                           0.353971             1180   9
  416          pw_charge                             1.248859                       1180   4
  417          m_sumb_d                              0.089710                         10   4
  418          fft_gq                                0.062206                         10   4
  419            fft3d_mpi                             0.059573                       10   5
  420              fftbrc_mpi                            0.056430                     10   6
  421                fftbas_plan_mpi                       0.056395                   10   7
  422                  dfftw_execute                         0.008419                 30   8
  423                  map_backward                          0.041986                 20   8
  424                    map_gather                            0.009179               20   9
  425                    m_alltoallv_z                         0.030662               20   9
  426                    map_scatter                           0.001674               20   9
  427        depsum                                0.020331                           10   3
  428          m_sumb_d                              0.009268                         10   4
  429        augmentation_charge                   0.544359                           10   3
  430          m_sumb_d                              0.045362                         10   4
  431          fft3d_mpi                             0.116055                         10   4
  432            fftbrc_mpi                            0.113898                       10   5
  433              fftbas_plan_mpi                       0.113872                     10   6
  434                dfftw_execute                         0.012415                   30   7
  435                map_backward                          0.094025                   20   7
  436                  map_gather                            0.004695                 10   8
  437                  m_alltoallv_z                         0.085556                 10   8
  438                  map_scatter                           0.003446                 10   8

 Flat profile

 edwav                               17095.373139        1071
 potlok                               1967.026408        1093
 dfftw_execute                        1055.334363     1860948
 lincom                                878.067475        3250
 m_alltoall_d                          873.399257     2589573
 orth1                                 758.592343      159647
 m_alltoallv_z                         748.472107      622491
 m_sumb_d                              712.951550     1088558
 fft3d_mpi                             592.974252      620316
 eddiag                                565.623415         558
 fftbas_plan_mpi                       386.736809      620316
 fftwav_mpi                            371.450649      379736
 choleski                              367.608094        1082
 eccp                                  310.433686      300160
 ggaall_grid                           238.387483        1456
 map_forward                           230.362422      843962
 total_time                            193.118319           1
 map_scatter                           189.825270      622491
 racc0                                 155.214358       77319
 pw_charge                             138.913900      127658
 eddav                                 132.323926           5
 map_gather                            120.772421      622491
 rpro1                                 120.643277       76619
 vhamil                                105.074412       80259
 w1_dscal                               77.110933       74760
 augmentation_charge                    42.030429        1082
 orthch                                 39.723952        1082
 setdij_                                39.604054        1380
 force_and_stress                       19.950711          11
 m_bcast_z                              19.122387        2380
 redis_pw                               16.726850      311686
 ggemm                                  13.694913        3259
 rpromu                                 13.673863        5005
 fftext_mpi                             12.256524      155019
 redis_proj                              7.784085      244991
 rpromu_gemm                             7.495275     1136135
 m_bcast_d                               5.183541        8814
 rspher_all                              5.145226         144
 overl                                   4.806020       81349
 forhar                                  4.467669          11
 forloc                                  4.451180          11
 soft_charge                             4.121847        1082
 elmin_all                               3.712010          11
 lapack                                  3.583720        2559
 map_backward                            3.535902      396670
 kinhamil                                3.293898       80259
 stufak                                  2.857069          11
 fftbrc_mpi                              2.101411      620316
 densta                                  2.043186        1093
 rsp                                     1.517599        2197
 depsum                                  1.193385        1082
 hamilt_local                            0.764375       77700
 pothar                                  0.609551        1093
 set_dd_paw                              0.596246        1104
 w1_copy                                 0.364265        7677
 fft_gq                                  0.361600        1082
 set_charge                              0.346110        1082
 strnlr                                  0.230979          11
 rpro_isp                                0.223253         143
 apply_precond                           0.158088        1859
 wavpre_noio                             0.133184          10
 fewald                                  0.131553        2197
 rcp                                     0.116286        2197
 overl1                                  0.094264        2559
 strehar                                 0.076035          11
 strkin                                  0.064794          11
 fornlr                                  0.062878          11
 setup_precond                           0.058095         700
 strelo                                  0.057139          11
 inisym                                  0.053473           1
 hamiltmu                                0.045535        2559
 raccmu_                                 0.034217        2559
 newband                                 0.031630        2564
 redis_pw_all                            0.013546        1071
 w1_projall                              0.011659        1859
 redis_pw_over_bands                     0.004234        1092
 truncate_high_frequency_w1              0.003256        3259
 fordep                                  0.002980          11
 potlok_metagga                          0.002600        1093
 set_rsgf_all                            0.002244        1104
 brgrid                                  0.000660           1
 phaser                                  0.000586         682
 posmap                                  0.000273           2
 crpa_reader                             0.000230           1
 proall                                  0.000144          11
 rotate_active_occupied_orbital          0.000078          11
 shift_bands_between_low_high            0.000033          21
 set_dd_magatom                          0.000032          22
 vectorpot                               0.000030           1
  summed up times    28674.5231029987

 Accumulative profile

 total_time                          28674.523103           1
 elmin_all                           27798.049890          11
 edwav                               22828.951585        1071
 fft3d_mpi                            3330.114958      620316
 potlok                               2964.952694        1093
 fftbrc_mpi                           2737.140706      620316
 fftbas_plan_mpi                      2735.039295      620316
 fftwav_mpi                           2409.878742      379736
 orthch                               1293.455324        1082
 eddiag                               1165.378160         558
 dfftw_execute                        1055.334363     1860948
 set_charge                            971.015428        1082
 soft_charge                           908.223236        1082
 map_forward                           892.235592      843962
 lincom                                878.067475        3250
 m_alltoall_d                          873.399257     2589573
 orth1                                 758.592343      159647
 m_alltoallv_z                         748.472107      622491
 m_sumb_d                              712.951550     1088558
 fftext_mpi                            530.477208      155019
 redis_pw                              493.155594      311686
 redis_proj                            404.754598      244991
 map_backward                          400.732530      396670
 hamilt_local                          370.128093       77700
 choleski                              367.608094        1082
 eccp                                  330.127079      300160
 kinhamil                              276.406997       80259
 eddav                                 242.920247           5
 ggaall_grid                           238.387483        1456
 force_and_stress                      190.010474          11
 map_scatter                           189.825270      622491
 racc0                                 189.531502       77319
 rpro_isp                              146.462494         143
 pw_charge                             138.913900      127658
 rpro1                                 137.043889       76619
 map_gather                            120.772421      622491
 strnlr                                105.691854          11
 vhamil                                105.074412       80259
 w1_dscal                               77.110933       74760
 redis_pw_over_bands                    69.357042        1092
 redis_pw_all                           69.352808        1071
 augmentation_charge                    60.196751        1082
 setdij_                                52.023201        1380
 fornlr                                 35.335823          11
 rpromu                                 23.958428        5005
 m_bcast_z                              19.122387        2380
 hamiltmu                               17.689508        2559
 set_dd_paw                             14.278904        1104
 ggemm                                  13.694913        3259
 proall                                 11.334434          11
 densta                                  7.681256        1093
 rpromu_gemm                             7.495275     1136135
 fft_gq                                  6.772779        1082
 newband                                 5.937992        2564
 raccmu_                                 5.526283        2559
 m_bcast_d                               5.183541        8814
 rspher_all                              5.145226         144
 overl                                   4.806020       81349
 forhar                                  4.489057          11
 forloc                                  4.471338          11
 lapack                                  3.583720        2559
 w1_projall                              3.329575        1859
 stufak                                  2.857069          11
 wavpre_noio                             2.729404          10
 fordep                                  2.510841          11
 depsum                                  2.249332        1082
 fewald                                  2.094595        2197
 pothar                                  2.060702        1093
 rsp                                     1.517599        2197
 w1_copy                                 0.364265        7677
 apply_precond                           0.158088        1859
 rcp                                     0.116286        2197
 strehar                                 0.097648          11
 overl1                                  0.094264        2559
 strelo                                  0.084759          11
 strkin                                  0.083250          11
 setup_precond                           0.080995         700
 inisym                                  0.053746           1
 truncate_high_frequency_w1              0.003256        3259
 potlok_metagga                          0.002600        1093
 set_rsgf_all                            0.002244        1104
 brgrid                                  0.000660           1
 phaser                                  0.000586         682
 posmap                                  0.000273           2
 crpa_reader                             0.000230           1
 rotate_active_occupied_orbital          0.000078          11
 shift_bands_between_low_high            0.000033          21
 set_dd_magatom                          0.000032          22
 vectorpot                               0.000030           1

Profiling took  18.231090  5.606788  0.011451  0.010630 seconds
Profiling took  23.023187 seconds