 vasp.6.3.2 27Jun22 (build Jan 03 2024 23:25:20) gamma-only

 executed on           IFC15_impi date 2024.02.09  01:30:27

 INCAR:
   ENCUT = 500.000000
   SIGMA = 0.010000
   EDIFF = 1.00e-05
   ALGO = A
   ISMEAR = 0
   NELM = 2000
   NSW = 500
   NCORE = 32
   LCHARG = .FALSE.
   LWAVE = .FALSE.
   LREAL = Auto
   IBRION = 2
   EDIFFG = -0.05
   GGA = BF
   LUSE_VDW = .TRUE.
   ZAB_VDW = -1.8867
   LBEEFENS = .TRUE.
   DIPOL = 0.5 0.5 0.65
   IDIPOL = 3
   LDIPOL = .TRUE.

 POTCAR:    PAW_PBE Au 04Oct2007
 POTCAR:    PAW_PBE C 08Apr2002
 POTCAR:    PAW_PBE H 15Jun2001
 POTCAR:    PAW_PBE O 08Apr2002
 POTCAR:    PAW_PBE Sr_sv 07Sep2000
 POTCAR:    PAW_PBE Ti_sv 26Sep2005
|               ----> ADVICE to this user running VASP <----                  |
|     You have switched on vdW-DFT.                                           |
|     This routine was written and supplied by Jiri Klimes. We recommend      |
|     that you carefully read and cite the following publications:            |
|       J. Klimes, D.R. Bowler, A. Michelides                                 |
|          J. Phys.: Cond Matt. 22 022201 (2010)                              |
|       J. Klimes, D.R. Bowler, A. Michelides                                 |
|          Phys. Rev. B. 83, 195131 (2011)                                    |
|     and references therein.                                                 |

   TITEL  = PAW_PBE Au 04Oct2007
   POMASS =  196.966; ZVAL   =   11.000    mass and valenz
   ENMAX  =  229.943; ENMIN  =  172.457 eV

   TITEL  = PAW_PBE C 08Apr2002
   POMASS =   12.011; ZVAL   =    4.000    mass and valenz
   ENMAX  =  400.000; ENMIN  =  300.000 eV

   TITEL  = PAW_PBE H 15Jun2001
   POMASS =    1.000; ZVAL   =    1.000    mass and valenz
   ENMAX  =  250.000; ENMIN  =  200.000 eV

   TITEL  = PAW_PBE O 08Apr2002
   POMASS =   16.000; ZVAL   =    6.000    mass and valenz
   ENMAX  =  400.000; ENMIN  =  300.000 eV

   TITEL  = PAW_PBE Sr_sv 07Sep2000
   POMASS =   87.620; ZVAL   =   10.000    mass and valenz
   ENMAX  =  229.353; ENMIN  =  172.014 eV

   TITEL  = PAW_PBE Ti_sv 26Sep2005
   POMASS =   47.880; ZVAL   =   12.000    mass and valenz
   ENMAX  =  274.610; ENMIN  =  205.957 eV

 Optimization of the real space projectors (new method)

 maximal supplied QI-value         = 15.12
 optimisation between [QCUT,QGAM] = [ 11.34, 22.83] = [ 36.00,145.93] Ry
 Optimized for a Real-space Cutoff    1.39 Angstroem

   l    n(q)    QCUT    max X(q) W(low)/X(q) W(high)/X(q)  e(spline)
   2      9    11.338    60.898    0.39E-03    0.42E-03    0.21E-06
   2      9    11.338    58.894    0.40E-03    0.42E-03    0.22E-06
   0      9    11.338   109.617    0.13E-03    0.20E-04    0.13E-06
   0      9    11.338    75.026    0.13E-03    0.20E-04    0.13E-06
   1      9    11.338    16.344    0.33E-04    0.24E-03    0.18E-06
   1      9    11.338    10.160    0.26E-04    0.19E-03    0.15E-06
 Optimization of the real space projectors (new method)

[...]

   l    n(q)    QCUT    max X(q) W(low)/X(q) W(high)/X(q)  e(spline)
   0     11    11.338    11.565    0.26E-04    0.80E-05    0.70E-07
   0     11    11.338    10.214    0.41E-04    0.15E-04    0.15E-06
   1     10    11.338   189.983    0.18E-03    0.52E-04    0.42E-06
   1     10    11.338   193.105    0.19E-03    0.52E-04    0.42E-06
   2     10    11.338   115.941    0.22E-03    0.42E-03    0.43E-06
   2     10    11.338    76.444    0.21E-03    0.41E-03    0.42E-06
 Optimization of the real space projectors (new method)

 maximal supplied QI-value         = 16.25
 optimisation between [QCUT,QGAM] = [ 11.38, 22.75] = [ 36.24,144.96] Ry
 Optimized for a Real-space Cutoff    1.27 Angstroem

   l    n(q)    QCUT    max X(q) W(low)/X(q) W(high)/X(q)  e(spline)
   0      9    11.376    12.277    0.53E-04    0.25E-04    0.25E-07
   0      9    11.376    11.419    0.89E-04    0.67E-05    0.35E-07
   1      8    11.376     4.010    0.13E-03    0.11E-03    0.29E-07
   1      8    11.376     6.182    0.94E-04    0.19E-03    0.11E-06
   2      8    11.376    47.177    0.13E-03    0.88E-03    0.24E-06
   2      8    11.376    42.437    0.13E-03    0.86E-03    0.23E-06
|               ----> ADVICE to this user running VASP <----                  |
|     You enforced a specific xc type in the INCAR file but a different       |
|     type was found in the POTCAR file.                                      |
|     I HOPE YOU KNOW WHAT YOU ARE DOING!                                     |

  PAW_PBE Au 04Oct2007                  :
  PAW_PBE C 08Apr2002                   :
  PAW_PBE H 15Jun2001                   :
  PAW_PBE O 08Apr2002                   :
  PAW_PBE Sr_sv 07Sep2000               :
  PAW_PBE Ti_sv 26Sep2005               :

 POSCAR: Au  C  H  O Sr Ti
  positions in direct lattice
  velocities in cartesian coordinates
 exchange correlation table for  LEXCH =       17
   RHO(1)=    0.500       N(1)  =     2000
   RHO(2)=  100.500       N(2)  =     4000

 VTST: version 4.1, (05/19/21)

 CHAIN: initializing optimizer

 OPT: Using VASP Conjugate-Gradient optimizer
 CHAIN: Read ICHAIN            0

 POSCAR: Au  C  H  O Sr Ti
  positions in direct lattice
  velocities in cartesian coordinates

 ion  position               nearest neighbor table
   1  0.715  0.525  0.753-  43 2.71  46 2.72  27 2.80  15 2.84  29 2.86  16 2.96  22 2.97
   2  0.368  0.620  0.820-  34 2.76  21 2.78  11 2.83  50 2.85  25 2.90  20 2.96
   3  0.569  0.511  0.857-   5 2.80  46 2.83  17 2.89  22 2.89  21 2.90  37 2.90  42 2.90  32 3.44

   4  0.677  0.213  0.763-  52 2.02  30 2.65  35 2.75  14 2.94  38 3.34  12 3.38
   5  0.468  0.453  0.882-  21 2.77  42 2.78   3 2.80  45 2.81  11 2.81
   6  0.518  0.377  0.733-  37 2.80  28 2.82  19 2.87  36 2.91  12 2.92  42 3.00  35 3.05   9 3.14
                            45 3.31 345 4.16
   7  0.281  0.341  0.702- 174 2.06  48 2.77  13 2.81   9 2.92  33 3.05 368 3.53 342 4.05
   8  0.669  0.681  0.749-  23 2.63  43 2.67  39 2.73  46 2.78  29 3.03  44 3.08  18 3.38
   9  0.397  0.383  0.691- 129 2.03 179 2.13  48 2.78  47 2.88   7 2.92  13 3.02  19 3.03   6 3.14
                           368 3.39  49 3.58  36 3.60 345 3.80
  10  0.452  0.580  0.703- 148 2.11  32 2.69  36 2.69  24 2.73  18 2.86  19 2.87  47 3.02 351 3.63

[...]

  15  0.773  0.429  0.795-  27 2.71  14 2.78   1 2.84  22 2.88
  16  0.648  0.445  0.694- 171 2.15  27 2.75  29 2.90  12 2.90   1 2.96  37 3.01  14 3.24  36 3.33
                           348 3.49  22 3.57
  17  0.565  0.641  0.862-  46 2.77  39 2.80  21 2.83  50 2.85   3 2.89  32 2.95
  18  0.540  0.668  0.702- 172 2.11  32 2.75  10 2.86  29 2.88  44 2.95  24 2.98  39 3.18  41 3.19
                             8 3.38 351 3.48
  19  0.443  0.474  0.756-  37 2.85  11 2.85  10 2.87   6 2.87  36 2.89  47 2.90  45 2.91   9 3.03
                            13 3.13  32 3.38
  20  0.374  0.740  0.779-  34 2.76  24 2.76  50 2.80  40 2.81  41 2.86   2 2.96  31 3.11
  21  0.462  0.575  0.864-   5 2.77   2 2.78  17 2.83  50 2.89   3 2.90  11 2.91  32 2.94
  22  0.654  0.441  0.813-  37 2.84  15 2.88  42 2.88   3 2.89  14 2.94   1 2.97  46 3.27  16 3.57

  23  0.707  0.757  0.688- 120 2.04 159 2.06   8 2.63  44 2.78 392 3.13  43 3.24 341 3.82 340 4.19

  24  0.418  0.697  0.699- 181 2.03  10 2.73  20 2.76  40 2.78  41 2.93  18 2.98  31 3.14 336 4.04
                           351 4.09
  25  0.289  0.539  0.778-  34 2.80  11 2.81  33 2.81  26 2.87  13 2.88   2 2.90  47 2.91
  26  0.257  0.593  0.695- 158 2.03 142 2.11  34 2.69  33 2.83  25 2.87  47 3.01  31 3.53 336 3.57
                           344 3.69
  27  0.762  0.430  0.705- 150 2.01  15 2.71  16 2.75   1 2.80  14 2.94 321 3.76 348 4.19
  28  0.482  0.271  0.775-  49 2.74  35 2.77   6 2.82  48 2.82  38 2.84  45 2.92  42 3.45
  29  0.621  0.571  0.704- 157 2.09  43 2.84   1 2.86  18 2.88  16 2.90  46 2.92  37 2.92   8 3.03
                            36 3.27  32 3.46 340 3.70
  30  0.727  0.260  0.692- 121 2.00 137 2.04   4 2.65  14 2.81  12 2.90 431 3.08 348 4.11 329 4.14

  31  0.294  0.747  0.697- 160 2.06 142 2.06  34 2.77  40 2.82  20 3.11  24 3.14  26 3.53 347 4.19
                           336 4.21
  32  0.512  0.603  0.777-  10 2.69  18 2.75  50 2.84  37 2.91  21 2.94  17 2.95  46 3.01  39 3.19
                            19 3.38   3 3.44  29 3.46
  33  0.240  0.470  0.709- 143 2.11  47 2.69  25 2.81  26 2.83  13 2.95   7 3.05 342 4.17
  34  0.285  0.663  0.765-  26 2.69   2 2.76  20 2.76  31 2.77  25 2.80
  35  0.596  0.295  0.786-   4 2.75  42 2.75  28 2.77  12 2.80  14 2.83   6 3.05  38 3.05
  36  0.514  0.484  0.678- 171 2.11  73 2.16  10 2.69  37 2.78  19 2.89   6 2.91 436 3.14  29 3.27
                            16 3.33 345 3.55   9 3.60 351 4.04
  37  0.563  0.486  0.762-  36 2.78   6 2.80  22 2.84  19 2.85   3 2.90  32 2.91  29 2.92  46 2.99
                            16 3.01  42 3.02
  38  0.552  0.215  0.711- 141 2.12  49 2.81  12 2.82  28 2.84  35 3.05   4 3.34 337 3.94
  39  0.578  0.726  0.794-   8 2.73  41 2.73  44 2.79  17 2.80  50 2.99  18 3.18  32 3.19  46 3.43

[...]

  45  0.427  0.374  0.817-   5 2.81  48 2.82  42 2.85  19 2.91  28 2.92  13 2.97  11 2.99   6 3.31

  46  0.634  0.584  0.800-   1 2.72  17 2.77   8 2.78   3 2.83  29 2.92  37 2.99  32 3.01  22 3.27
                            39 3.43
  47  0.349  0.501  0.698- 148 2.11  33 2.69   9 2.88  19 2.90  25 2.91  13 2.93  26 3.01  10 3.02
                           336 4.16 368 4.28
  48  0.368  0.300  0.756-   7 2.77   9 2.78  13 2.81  45 2.82  28 2.82  49 2.86
  49  0.436  0.228  0.698- 128 2.01 179 2.14  28 2.74  38 2.81  48 2.86   9 3.58 337 3.91 326 4.29

  50  0.464  0.696  0.830-  20 2.80  32 2.84  17 2.85   2 2.85  21 2.89  41 2.93  39 2.99
  51  0.748  0.120  0.798- 252 1.18  52 1.32
  52  0.715  0.132  0.763-  53 1.08  51 1.32   4 2.02
  53  0.713  0.103  0.734-  52 1.08
  54  0.577  0.436  0.552- 436 1.94 417 2.06 345 2.62 357 2.77 348 2.91 372 3.03
  55  0.085  0.813  0.547- 455 1.85 460 2.17 363 2.67 388 2.73 346 3.17 332 3.36
  56  0.417  0.065  0.547- 452 1.84 429 2.26 359 2.74 376 2.77 337 2.96 326 3.07
  57  0.081  0.564  0.546- 442 1.84 427 2.23 356 2.68 323 2.77 344 2.86 334 3.30
  58  0.416  0.320  0.553- 435 1.96 423 1.97 345 2.66 368 2.73 389 2.98 360 2.98
  59  0.583  0.062  0.545- 399 1.84 438 2.22 376 2.68 364 2.69 337 3.01 329 3.11
  60  0.581  0.560  0.549- 436 1.88 424 2.09 351 2.70 357 2.74 340 2.83 372 2.86
  61  0.747  0.311  0.548- 431 1.94 446 2.00 348 2.65 358 2.72 370 2.87 321 3.05
  62  0.586  0.814  0.550- 401 1.92 441 2.06 366 2.75 365 2.81 341 2.95 354 3.03
  63  0.501  0.757  0.593- 454 1.99 441 2.01 365 2.66 354 2.73 351 2.94
  64  0.583  0.937  0.454- 415 2.00 401 2.06 325 2.79 349 2.81 376 2.84 364 2.86
  65  0.253  0.559  0.544- 450 1.91 428 2.04 361 2.63 323 2.79 336 2.87 344 3.19
  66  0.082  0.063  0.548- 443 1.84 461 2.22 386 2.70 374 2.71 369 3.19 343 3.30
  67  0.749  0.934  0.548- 425 1.82 439 2.28 364 2.77 380 2.79 341 2.92 322 3.15
  68  0.584  0.938  0.546- 401 1.84 438 2.25 364 2.68 376 2.70 341 2.95 354 3.05
  69  0.917  0.189  0.545- 402 1.85 458 2.18 370 2.67 387 2.67 338 3.25 369 3.33
[...]
  311          phaser                                0.000004                          9   4
  312          rpro_isp                              6.472482                          9   4
  313            fftwav_mpi                            4.939228                     1260   5
  314              fft3d_mpi                             4.415198                   1260   6
  315                fftbrc_mpi                            3.771444                 1260   7
  316                  fftbas_plan_mpi                       3.767608               1260   8
  317                    dfftw_execute                         1.913475             3780   9
  318                    map_forward                           1.076443             2520   9
  319                      map_gather                            0.108760           1260  10
  320                      m_alltoallv_z                         0.382178           1260  10
  321                      map_scatter                           0.232482           1260  10
  322            rpromu                                1.522387                      315   5
  323              rpromu_gemm                           0.444057                  72135   6
  324              m_sumb_d                              0.189732                   1260   6
  325          m_sumb_d                              0.064751                          1   4
  326        m_sumb_d                              0.002515                            7   3
  327        fft3d_mpi                             0.582130                           71   3
  328          fftbrc_mpi                            0.564426                         71   4
  329            fftbas_plan_mpi                       0.564118                       71   5
  330              dfftw_execute                         0.086476                    213   6
  331              map_forward                           0.218359                     70   6
  332                map_gather                            0.004285                   35   7
  333                m_alltoallv_z                         0.192098                   35   7
  334                map_scatter                           0.021276                   35   7
  335              map_backward                          0.207461                     72   6
  336                map_gather                            0.017637                   36   7
  337                m_alltoallv_z                         0.179419                   36   7
  338                map_scatter                           0.009665                   36   7
  339        ggaall_grid                           0.191804                            1   3
  340        forhar                                0.410126                            1   3
  341          m_sumb_d                              0.002881                          1   4
  342        strehar                               0.007969                            1   3
  343          m_sumb_d                              0.001067                          1   4
  344        m_bcast_d                             0.001557                            2   3
  345      potlok                                7.608077                              1   2
  346        fft3d_mpi                             2.857649                          329   3
  347          fftbrc_mpi                            2.775928                        329   4
  348            fftbas_plan_mpi                       2.774792                      329   5
  349              dfftw_execute                         0.416255                    987   6
  350              map_forward                           1.003463                    330   6
  351                map_gather                            0.022092                  166   7
  352                m_alltoallv_z                         0.877573                  166   7
  353                map_scatter                           0.100811                  166   7
  354              map_backward                          1.120025                    328   6
  355                map_gather                            0.079894                  164   7
  356                m_alltoallv_z                         0.991445                  164   7
  357                map_scatter                           0.045585                  164   7
  358        ggaall_grid                           2.583306                           33   3
  359        m_sumb_d                              0.034827                          168   3
  360        fewald                                0.001399                            2   3
  361          rsp                                   0.001287                          2   4
  362          rcp                                   0.000098                          2   4
  363        pothar                                0.001600                            1   3
  364          m_sumb_d                              0.000975                          1   4
  365        m_bcast_d                             0.003996                            1   3
  366      potlok_metagga                        0.000001                              1   2
  367      set_dd_magatom                        0.000001                              1   2
  368      set_dd_paw                            0.011983                              1   2
  369        set_rsgf_all                          0.000002                            1   3
  370        m_sumb_d                              0.011739                            7   3
  371      m_bcast_d                             0.000380                              2   2

 Flat profile

 edwav                                6121.102815         560
 potlok                               1012.693321         562
 m_alltoall_d                          486.337854     1339520
 dfftw_execute                         441.628466      932163
 lincom                                440.939726        1687
 m_sumb_d                              358.436193      559907
 m_alltoallv_z                         302.421813      311844
 orth1                                 284.739688       85380
 choleski                              194.624804         561
 fftbas_plan_mpi                       193.140528      310721
 fft3d_mpi                             144.626678      310721
 ggaall_grid                           118.651696         595
 eddav                                  92.568308           5
 total_time                             82.560470           1
 fftwav_mpi                             75.887596      188825
 eccp                                   75.589393      155820
 map_scatter                            63.935434      311844
 racc0                                  63.024007       40920
 rpro1                                  57.913817       40220
 map_forward                            52.489883      419566
 map_gather                             42.334167      311844
 pw_charge                              29.165992       65685
 augmentation_charge                    22.327023         561
 vhamil                                 19.126993       41060
 eddiag                                 18.059341         287
 setdij_                                17.494040         589
 w1_dscal                               12.385996       38360
 m_bcast_z                              11.173608        2380
 orthch                                  9.435854         561
 redis_pw                                8.696426      161967
 ggemm                                   7.656080        3260
 fftext_mpi                              5.623012       79420
 redis_proj                              4.241117      130048
 lapack                                  3.815925        2560
 m_bcast_d                               3.444495        8246
 overl                                   2.531677       43890
 force_and_stress                        1.822685           1
 map_backward                            1.707825      201876
 kinhamil                                1.348038       41060
 soft_charge                             1.299033         561
 rpromu                                  1.280761         455
 elmin_all                               1.146752           1
 densta                                  1.069242         572
 fftbrc_mpi                              0.962186      310721
 rsp                                     0.761101        1125
 rpromu_gemm                             0.650041      104195
 depsum                                  0.636276         561
 rspher_all                              0.490852          14
 forloc                                  0.413146           1
 forhar                                  0.407245           1
 hamilt_local                            0.301835       38500
 set_dd_paw                              0.293546         563
 pothar                                  0.289896         562
 w1_copy                                 0.287345        7680
 stufak                                  0.262502           1
 set_charge                              0.134082         561
 apply_precond                           0.098009        1860
 overl1                                  0.092075        2560
 fft_gq                                  0.091609         561
 setup_precond                           0.062749         700
 rcp                                     0.057647        1125
 inisym                                  0.053703           1
 hamiltmu                                0.039864        2560
 rpro_isp                                0.039404          13
 raccmu_                                 0.031479        2560
 newband                                 0.030889        2565
 fewald                                  0.026757        1125
 strnlr                                  0.021367           1
 w1_projall                              0.010773        1860
 strehar                                 0.006902           1
 strelo                                  0.006272           1
 fornlr                                  0.005698           1
 strkin                                  0.005400           1
 redis_pw_all                            0.003799         560
 truncate_high_frequency_w1              0.003108        3260
 redis_pw_over_bands                     0.002245         561
 set_rsgf_all                            0.001219         563
 brgrid                                  0.000688           1
 potlok_metagga                          0.000634         562
 posmap                                  0.000272           2
 crpa_reader                             0.000241           1
 fordep                                  0.000227           1
 phaser                                  0.000221         292
 vectorpot                               0.000037           1
 proall                                  0.000025           1
 rotate_active_occupied_orbital          0.000024           1
 set_dd_magatom                          0.000008           2
 shift_bands_between_low_high            0.000002           1
  summed up times    10897.0819768906

 Accumulative profile

 total_time                          10897.081977           1
 elmin_all                           10779.355764           1
 edwav                                8570.998207         560
 potlok                               1474.178482         562
 fft3d_mpi                            1243.246980      310721
 fftbrc_mpi                           1098.620302      310721
 fftbas_plan_mpi                      1097.658116      310721
 fftwav_mpi                            737.302063      188825
 orthch                                631.949897         561
 m_alltoall_d                          486.337854     1339520
 dfftw_execute                         441.628466      932163
 lincom                                440.939726        1687
 m_sumb_d                              358.436193      559907
 set_charge                            331.403297         561
 m_alltoallv_z                         302.421813      311844
 soft_charge                           300.609296         561
 map_forward                           290.880370      419566
 orth1                                 284.739688       85380
 redis_pw                              252.297982      161967
 redis_proj                            246.977416      130048
 fftext_mpi                            241.473377       79420
 eddiag                                199.349920         287
 choleski                              194.624804         561
 eddav                                 174.786342           5
 map_backward                          172.008752      201876
 hamilt_local                          136.252621       38500
 kinhamil                              126.057880       41060
 ggaall_grid                           118.651696         595
 eccp                                   86.693246      155820
 racc0                                  77.832819       40920
 rpro1                                  67.260236       40220
 map_scatter                            63.935434      311844
 map_gather                             42.334167      311844
 redis_pw_over_bands                    41.581930         561
 redis_pw_all                           41.579684         560
 augmentation_charge                    29.577858         561
 pw_charge                              29.165992       65685
 setdij_                                23.361551         589
 vhamil                                 19.126993       41060
 hamiltmu                               14.012569        2560
 force_and_stress                       13.610355           1
 w1_dscal                               12.385996       38360
 m_bcast_z                              11.173608        2380
 rpro_isp                                9.401259          13
 ggemm                                   7.656080        3260
 set_dd_paw                              7.265968         563
 strnlr                                  6.880518           1
 densta                                  5.062792         572
 raccmu_                                 4.738619        2560
 newband                                 4.252043        2565
 lapack                                  3.815925        2560
 m_bcast_d                               3.444495        8246
 w1_projall                              3.113761        1860
 fft_gq                                  2.882045         561
 overl                                   2.531677       43890
 fornlr                                  2.307768           1
 rpromu                                  2.216108         455
 depsum                                  1.082061         561
 pothar                                  0.934160         562
 fewald                                  0.878082        1125
 proall                                  0.763827           1
 rsp                                     0.761101        1125
 rpromu_gemm                             0.650041      104195
 rspher_all                              0.490852          14
 forloc                                  0.415211           1
 forhar                                  0.410126           1
 w1_copy                                 0.287345        7680
 stufak                                  0.262502           1
 fordep                                  0.222005           1
 apply_precond                           0.098009        1860
 overl1                                  0.092075        2560
 setup_precond                           0.090197         700
 rcp                                     0.057647        1125
 inisym                                  0.053975           1
 strehar                                 0.007969           1
 strelo                                  0.006776           1
 strkin                                  0.006043           1
 truncate_high_frequency_w1              0.003108        3260
 set_rsgf_all                            0.001219         563
 brgrid                                  0.000688           1
 potlok_metagga                          0.000634         562
 posmap                                  0.000272           2
 crpa_reader                             0.000241           1
 phaser                                  0.000221         292
 vectorpot                               0.000037           1
 rotate_active_occupied_orbital          0.000024           1
 set_dd_magatom                          0.000008           2
 shift_bands_between_low_high            0.000002           1

Profiling took   7.928681  2.557916  0.007301  0.006563 seconds
Profiling took   9.231683 seconds