 vasp.6.3.2 27Jun22 (build Jan 03 2024 23:25:20) gamma-only

 executed on           IFC15_impi date 2024.03.10  21:32:49

 INCAR:
   ENCUT = 500.000000
   SIGMA = 0.010000
   EDIFF = 1.00e-06
   ALGO = A
   ISMEAR = 0
   NELM = 2000
   NSW = 500
   NCORE = 32
   LCHARG = .FALSE.
   LWAVE = .FALSE.
   LREAL = Auto
   IBRION = 2
   EDIFFG = -0.05
   GGA = BF
   LUSE_VDW = .TRUE.
   ZAB_VDW = -1.8867
   LBEEFENS = .TRUE.
   DIPOL = 0.5 0.5 0.5
   IDIPOL = 3
   LDIPOL = .TRUE.

 POTCAR:    PAW_PBE Sr_sv 07Sep2000
 POTCAR:    PAW_PBE Ti_sv 26Sep2005
 POTCAR:    PAW_PBE O 08Apr2002
|               ----> ADVICE to this user running VASP <----                  |
|     You have switched on vdW-DFT.                                           |
|     This routine was written and supplied by Jiri Klimes. We recommend      |
|     that you carefully read and cite the following publications:            |
|       J. Klimes, D.R. Bowler, A. Michelides                                 |
|          J. Phys.: Cond Matt. 22 022201 (2010)                              |
|       J. Klimes, D.R. Bowler, A. Michelides                                 |
|          Phys. Rev. B. 83, 195131 (2011)                                    |
|     and references therein.                                                 |

   TITEL  = PAW_PBE Sr_sv 07Sep2000
   POMASS =   87.620; ZVAL   =   10.000    mass and valenz
   ENMAX  =  229.353; ENMIN  =  172.014 eV

   TITEL  = PAW_PBE Ti_sv 26Sep2005
   POMASS =   47.880; ZVAL   =   12.000    mass and valenz
   ENMAX  =  274.610; ENMIN  =  205.957 eV

   TITEL  = PAW_PBE O 08Apr2002
   POMASS =   16.000; ZVAL   =    6.000    mass and valenz
   ENMAX  =  400.000; ENMIN  =  300.000 eV

 Optimization of the real space projectors (new method)

 maximal supplied QI-value         = 15.12
 optimisation between [QCUT,QGAM] = [ 11.34, 22.83] = [ 36.00,145.93] Ry
 Optimized for a Real-space Cutoff    1.56 Angstroem

   l    n(q)    QCUT    max X(q) W(low)/X(q) W(high)/X(q)  e(spline)
   0     11    11.338    11.565    0.26E-04    0.80E-05    0.70E-07
   0     11    11.338    10.214    0.41E-04    0.15E-04    0.15E-06
   1     10    11.338   189.983    0.18E-03    0.52E-04    0.42E-06
   1     10    11.338   193.105    0.19E-03    0.52E-04    0.42E-06
   2     10    11.338   115.941    0.22E-03    0.42E-03    0.43E-06
   2     10    11.338    76.444    0.21E-03    0.41E-03    0.42E-06
 Optimization of the real space projectors (new method)

[...]

   l    n(q)    QCUT    max X(q) W(low)/X(q) W(high)/X(q)  e(spline)
   0      9    11.376    12.277    0.53E-04    0.25E-04    0.25E-07
   0      9    11.376    11.419    0.89E-04    0.67E-05    0.35E-07
   1      8    11.376     4.010    0.13E-03    0.11E-03    0.29E-07
   1      8    11.376     6.182    0.94E-04    0.19E-03    0.11E-06
   2      8    11.376    47.177    0.13E-03    0.88E-03    0.24E-06
   2      8    11.376    42.437    0.13E-03    0.86E-03    0.23E-06
 Optimization of the real space projectors (new method)

 maximal supplied QI-value         = 24.76
 optimisation between [QCUT,QGAM] = [ 11.39, 22.77] = [ 36.31,145.25] Ry
 Optimized for a Real-space Cutoff    1.00 Angstroem

   l    n(q)    QCUT    max X(q) W(low)/X(q) W(high)/X(q)  e(spline)
   0      7    11.387    20.381    0.39E-03    0.13E-02    0.15E-06
   0      7    11.387    15.268    0.42E-03    0.14E-02    0.17E-06
   1      6    11.387     5.964    0.41E-03    0.11E-02    0.17E-06
   1      6    11.387     5.382    0.39E-03    0.87E-03    0.15E-06
|               ----> ADVICE to this user running VASP <----                  |
|     You enforced a specific xc type in the INCAR file but a different       |
|     type was found in the POTCAR file.                                      |
|     I HOPE YOU KNOW WHAT YOU ARE DOING!                                     |

  PAW_PBE Sr_sv 07Sep2000               :
  PAW_PBE Ti_sv 26Sep2005               :
  PAW_PBE O 08Apr2002                   :

 POSCAR: Sr1 Ti1 O3
  positions in direct lattice
  velocities in cartesian coordinates
 exchange correlation table for  LEXCH =       17
   RHO(1)=    0.500       N(1)  =     2000
   RHO(2)=  100.500       N(2)  =     4000

 VTST: version 4.1, (05/19/21)

 CHAIN: initializing optimizer

 OPT: Using VASP Conjugate-Gradient optimizer
 CHAIN: Read ICHAIN            0

 POSCAR: Sr1 Ti1 O3
  positions in direct lattice
  velocities in cartesian coordinates

 ion  position               nearest neighbor table
   1  0.000  0.125  0.407- 265 2.72 237 2.78 261 2.78 217 2.78 241 2.78 189 2.79 165 2.79 169 2.79
                           145 2.79 193 2.79 194 2.79  93 3.42  94 3.42  73 3.42  74 3.42 117 3.55
   2  0.000  0.375  0.407- 266 2.72 262 2.78 238 2.78 242 2.78 218 2.78 166 2.79 190 2.79 146 2.79
                           170 2.79 195 2.79 194 2.79  95 3.42  94 3.42  75 3.42  74 3.42 116 3.55
   3  0.000  0.625  0.407- 267 2.72 239 2.78 263 2.78 219 2.78 243 2.78 191 2.79 167 2.79 171 2.79
                           147 2.79 195 2.79 196 2.79  95 3.42  96 3.42  75 3.42  76 3.42 119 3.55
   4  0.000  0.875  0.407- 269 2.72 240 2.78 220 2.78 264 2.78 244 2.78 192 2.79 172 2.79 168 2.79
                           148 2.79 196 2.79 193 2.79  96 3.42  76 3.42  93 3.42  73 3.42 120 3.55
   5  0.333  0.125  0.407- 268 2.72 221 2.78 245 2.78 229 2.78 253 2.78 173 2.79 149 2.79 181 2.79
                           157 2.79 197 2.79 198 2.79  77 3.42  78 3.42  85 3.42  86 3.42 103 3.55
   6  0.333  0.375  0.407- 273 2.72 246 2.78 222 2.78 254 2.78 230 2.78 150 2.79 174 2.79 158 2.79
                           182 2.79 199 2.79 198 2.79  79 3.42  78 3.42  87 3.42  86 3.42 102 3.55
   7  0.333  0.625  0.407- 272 2.72 223 2.78 247 2.78 231 2.78 255 2.78 175 2.79 151 2.79 183 2.79
                           159 2.79 199 2.79 200 2.79  79 3.42  80 3.42  87 3.42  88 3.42 101 3.55
   8  0.333  0.875  0.407- 270 2.72 224 2.78 232 2.78 248 2.78 256 2.78 176 2.79 184 2.79 152 2.79
                           160 2.79 200 2.79 197 2.79  80 3.42  88 3.42  77 3.42  85 3.42 111 3.55
   9  0.667  0.125  0.407- 271 2.72 225 2.78 249 2.78 233 2.78 257 2.78 177 2.79 153 2.79 185 2.79
                           161 2.79 201 2.79 202 2.79  81 3.42  82 3.42  89 3.42  90 3.42 110 3.55
  10  0.667  0.375  0.407- 274 2.72 250 2.78 226 2.78 258 2.78 234 2.78 154 2.79 178 2.79 162 2.79
                           186 2.79 203 2.79 202 2.79  83 3.42  82 3.42  91 3.42  90 3.42 108 3.55
  11  0.667  0.625  0.407- 275 2.72 227 2.78 251 2.78 235 2.78 259 2.78 179 2.79 155 2.79 187 2.79
                           163 2.79 203 2.79 204 2.79  83 3.42  84 3.42  91 3.42  92 3.42 109 3.55
  12  0.667  0.875  0.407- 277 2.72 228 2.78 252 2.78 236 2.78 260 2.78 180 2.79 156 2.79 188 2.79
                           164 2.79 204 2.79 201 2.79  84 3.42  92 3.42  81 3.42  89 3.42 104 3.55
  13  0.167  0.125  0.407- 276 2.72 229 2.78 253 2.78 217 2.78 241 2.78 181 2.79 157 2.79 169 2.79
                           145 2.79 205 2.79 206 2.79  85 3.42  86 3.42  73 3.42  74 3.42 105 3.55
  14  0.167  0.375  0.407- 280 2.72 254 2.78 242 2.78 230 2.78 218 2.78 158 2.79 146 2.79 182 2.79
                           170 2.79 207 2.79 206 2.79  87 3.42  86 3.42  75 3.42  74 3.42 107 3.55
  15  0.167  0.625  0.407- 279 2.72 231 2.78 255 2.78 219 2.78 243 2.78 183 2.79 159 2.79 171 2.79
                           147 2.79 207 2.79 208 2.79  87 3.42  88 3.42  75 3.42  76 3.42 106 3.55
  16  0.167  0.875  0.407- 278 2.72 232 2.78 220 2.78 256 2.78 244 2.78 184 2.79 172 2.79 160 2.79
                           148 2.79 208 2.79 205 2.79  88 3.42  76 3.42  85 3.42  73 3.42 112 3.55
  17  0.500  0.125  0.407- 288 2.72 233 2.78 257 2.78 221 2.78 245 2.78 185 2.79 161 2.79 173 2.79
                           149 2.79 209 2.79 210 2.79  89 3.42  90 3.42  77 3.42  78 3.42 113 3.55
  18  0.500  0.375  0.407- 287 2.72 258 2.78 234 2.78 246 2.78 222 2.78 162 2.79 186 2.79 150 2.79
                           174 2.79 211 2.79 210 2.79  91 3.42  90 3.42  79 3.42  78 3.42 115 3.55
  19  0.500  0.625  0.407- 285 2.72 235 2.78 259 2.78 223 2.78 247 2.78 187 2.79 163 2.79 175 2.79
                           151 2.79 211 2.79 212 2.79  91 3.42  92 3.42  79 3.42  80 3.42 114 3.55
  20  0.500  0.875  0.407- 286 2.72 236 2.78 224 2.78 260 2.78 248 2.78 188 2.79 176 2.79 164 2.79
                           152 2.79 212 2.79 209 2.79  92 3.42  80 3.42  89 3.42  77 3.42 118 3.55
  21  0.833  0.125  0.407- 281 2.72 225 2.78 249 2.78 237 2.78 261 2.78 177 2.79 153 2.79 189 2.79
                           165 2.79 213 2.79 214 2.79  81 3.42  82 3.42  93 3.42  94 3.42 110 3.55
  22  0.833  0.375  0.407- 282 2.72 250 2.78 226 2.78 262 2.78 238 2.78 154 2.79 178 2.79 166 2.79
                           190 2.79 215 2.79 214 2.79  83 3.42  82 3.42  95 3.42  94 3.42 108 3.55
  23  0.833  0.625  0.407- 284 2.72 227 2.78 251 2.78 239 2.78 263 2.78 179 2.79 155 2.79 191 2.79
                           167 2.79 215 2.79 216 2.79  83 3.42  84 3.42  95 3.42  96 3.42 109 3.55
  24  0.833  0.875  0.407- 283 2.72 228 2.78 252 2.78 240 2.78 264 2.78 180 2.79 156 2.79 192 2.79
                           168 2.79 216 2.79 213 2.79  84 3.42  96 3.42  81 3.42  93 3.42 104 3.55
  25  0.000  0.000  0.504- 341 2.59 312 2.70 336 2.70 293 2.70 313 2.70 265 2.80 269 2.80 264 2.87
                           237 2.87 244 2.87 217 2.87 193 2.92 117 3.42  97 3.42 120 3.42  99 3.42
  26  0.000  0.250  0.504- 342 2.59 335 2.70 309 2.70 314 2.70 289 2.70 266 2.80 265 2.80 238 2.87
                           261 2.87 218 2.87 241 2.87 194 2.92 116 3.42 117 3.42  98 3.42  97 3.42
  27  0.000  0.750  0.504- 338 2.59 334 2.70 311 2.70 316 2.70 291 2.70 269 2.80 267 2.80 240 2.87
                           263 2.87 220 2.87 243 2.87 196 2.92 120 3.42  99 3.42 119 3.42 100 3.42
  28  0.000  0.500  0.504- 337 2.59 333 2.70 308 2.70 315 2.70 290 2.70 267 2.80 266 2.80 239 2.87
                           262 2.87 219 2.87 242 2.87 195 2.92 116 3.42 119 3.42  98 3.42 100 3.42
  29  0.333  0.500  0.504- 343 2.59 318 2.70 297 2.70 327 2.70 302 2.70 273 2.80 272 2.80 223 2.87
                           246 2.87 231 2.87 254 2.87 199 2.92 101 3.42 102 3.42 106 3.42 107 3.42
  30  0.333  0.250  0.504- 339 2.59 319 2.70 292 2.70 326 2.70 301 2.70 273 2.80 268 2.80 222 2.87
                           245 2.87 230 2.87 253 2.87 198 2.92 102 3.42 103 3.42 107 3.42 105 3.42
  31  0.333  0.000  0.504- 340 2.59 294 2.70 317 2.70 304 2.70 325 2.70 268 2.80 270 2.80 248 2.87
                           221 2.87 256 2.87 229 2.87 197 2.92 103 3.42 105 3.42 111 3.42 112 3.42
  32  0.333  0.750  0.504- 344 2.59 322 2.70 296 2.70 328 2.70 303 2.70 270 2.80 272 2.80 224 2.87
                           247 2.87 232 2.87 255 2.87 200 2.92 111 3.42 112 3.42 101 3.42 106 3.42
  33  0.667  0.000  0.504- 346 2.59 300 2.70 321 2.70 310 2.70 329 2.70 271 2.80 277 2.80 252 2.87
                           225 2.87 260 2.87 233 2.87 201 2.92 110 3.42 104 3.42 113 3.42 118 3.42
  34  0.667  0.500  0.504- 348 2.59 323 2.70 298 2.70 332 2.70 307 2.70 275 2.80 274 2.80 227 2.87
[...]
  381            fftbrc_mpi                            1.073835                      357   5
  382              fftbas_plan_mpi                       1.072756                    357   6
  383                dfftw_execute                         0.545840                 1071   7
  384                map_forward                           0.313081                  714   7
  385                  map_gather                            0.033284                357   8
  386                  m_alltoallv_z                         0.112317                357   8
  387                  map_scatter                           0.066394                357   8
  388        hamilt_local                          1.272969                          357   3
  389          vhamil                                0.172457                        357   4
  390          kinhamil                              1.097623                        357   4
  391            fftext_mpi                            1.084553                      357   5
  392              fft3d_mpi                             1.059495                    357   6
  393                fftbrc_mpi                            0.891150                  357   7
  394                  fftbas_plan_mpi                       0.889967                357   8
  395                    dfftw_execute                         0.463932             1071   9
  396                    map_backward                          0.215369              714   9
  397                      map_gather                            0.056695            357  10
  398                      m_alltoallv_z                         0.102837            357  10
  399                      map_scatter                           0.050162            357  10
  400        redis_pw                              0.668270                          363   3
  401          m_alltoall_d                          0.642726                       1071   4
  402        orth1                                 0.621310                          180   3
  403        m_sumb_d                              0.463680                            3   3
  404        shift_bands_between_low_high          0.000004                            3   3
  405        lincom                                0.661640                            3   3
  406      set_charge                           12.846696                              3   2
  407        soft_charge                           1.382388                            3   3
  408          fftwav_mpi                            1.174414                        300   4
  409            fft3d_mpi                             1.057321                      300   5
  410              fftbrc_mpi                            0.901101                    300   6
  411                fftbas_plan_mpi                       0.900281                  300   7
  412                  dfftw_execute                         0.454830                900   8
  413                  map_forward                           0.253478                600   8
  414                    map_gather                            0.026486              300   9
  415                    m_alltoallv_z                         0.091262              300   9
  416                    map_scatter                           0.055357              300   9
  417          pw_charge                             0.133679                        300   4
  418          m_sumb_d                              0.053123                          3   4
  419          fft_gq                                0.015296                          3   4
  420            fft3d_mpi                             0.014857                        3   5
  421              fftbrc_mpi                            0.014040                      3   6
  422                fftbas_plan_mpi                       0.014032                    3   7
  423                  dfftw_execute                         0.002598                  9   8
  424                  map_backward                          0.009512                  6   8
  425                    map_gather                            0.001128                6   9
  426                    m_alltoallv_z                         0.007839                6   9
  427                    map_scatter                           0.000458                6   9
  428        m_sumb_d                              0.392323                            3   3
  429        depsum                                0.028956                            3   3
  430          m_sumb_d                              0.026602                          3   4
  431        augmentation_charge                   0.237559                            3   3
  432          m_sumb_d                              0.006575                          3   4
  433          fft3d_mpi                             0.024289                          3   4
  434            fftbrc_mpi                            0.023674                        3   5
  435              fftbas_plan_mpi                       0.023665                      3   6
  436                dfftw_execute                         0.003633                    9   7
  437                map_backward                          0.017648                    6   7
  438                  map_gather                            0.001244                  3   8
  439                  m_alltoallv_z                         0.015548                  3   8
  440                  map_scatter                           0.000807                  3   8

 Flat profile

 edwav                                6630.769961         929
 set_charge                           3385.520265         933
 potlok                               1685.415961         937
 dfftw_execute                         646.675959     1351254
 m_alltoall_d                          641.100290     1877022
 m_sumb_d                              574.100945      790540
 lincom                                522.375618        2803
 m_alltoallv_z                         472.992899      452288
 orth1                                 329.058543      116663
 fftbas_plan_mpi                       278.621475      450418
 fft3d_mpi                             210.076430      450418
 choleski                              206.685482         933
 ggaall_grid                           196.690812        1069
 fftwav_mpi                            110.165196      268470
 eccp                                  106.963240      218484
 map_scatter                            97.617028      452288
 map_forward                            77.419562      607590
 eddiag                                 75.403108         485
 total_time                             73.940709           1
 racc0                                  72.158673       55867
 rpro1                                  67.441779       55272
 map_gather                             65.466302      452288
 augmentation_charge                    62.532418         933
 eddav                                  58.962179           5
 pw_charge                              41.872281       93428
 vhamil                                 26.674119       56700
 setdij_                                26.228821        1042
 w1_dscal                               18.156710       53669
 redis_pw                               12.345728      223849
 orthch                                 11.905955         933
 m_bcast_z                               9.714763        2023
 fftext_mpi                              8.370026      110369
 force_and_stress                        7.269186           4
 ggemm                                   5.854409        2793
 redis_proj                              5.675301      178763
 m_bcast_d                               4.408810        7547
 rpromu                                  3.704190        1560
 lapack                                  3.406364        2198
 overl                                   2.897415       59312
 map_backward                            2.589784      293246
 elmin_all                               2.182585           4
 rpromu_gemm                             1.972781      318240
 soft_charge                             1.950566         933
 kinhamil                                1.908366       56700
 rspher_all                              1.618077          53
 densta                                  1.543157         944
 forloc                                  1.466539           4
 forhar                                  1.449271           4
 fftbrc_mpi                              1.371696      450418
 rsp                                     1.278440        1878
 stufak                                  0.931458           4
 depsum                                  0.720319         933
 set_dd_paw                              0.502670         941
 pothar                                  0.486753         937
 hamilt_local                            0.448297       54502
 inisym                                  0.317846           1
 w1_copy                                 0.254215        6594
 fft_gq                                  0.158671         933
 rpro_isp                                0.104484          52
 rcp                                     0.094040        1878
 apply_precond                           0.084841        1603
 overl1                                  0.068872        2198
 strnlr                                  0.060732           4
 setup_precond                           0.050710         595
 fewald                                  0.039830        1878
 posmap                                  0.037644           2
 hamiltmu                                0.033976        2198
 raccmu_                                 0.026215        2198
 newband                                 0.025698        2203
 wavpre_noio                             0.025450           3
 strehar                                 0.018139           4
 strkin                                  0.017942           4
 fornlr                                  0.016523           4
 strelo                                  0.015558           4
 w1_projall                              0.008982        1603
 redis_pw_all                            0.006518         929
 redis_pw_over_bands                     0.004005         936
 truncate_high_frequency_w1              0.002419        2793
 set_rsgf_all                            0.002168         941
 potlok_metagga                          0.001211         937
 fordep                                  0.000818           4
 brgrid                                  0.000643           1
 phaser                                  0.000403         508
 crpa_reader                             0.000232           1
 rotate_active_occupied_orbital          0.000074           4
 proall                                  0.000069           4
 vectorpot                               0.000032           1
 set_dd_magatom                          0.000027           8
 shift_bands_between_low_high            0.000011           7
  summed up times    16860.5386669636

 Accumulative profile

 total_time                          16860.538667           1
 elmin_all                           16629.017977           4
 edwav                                9726.005273         929
 set_charge                           4023.237700         933
 potlok                               2448.870089         937
 fft3d_mpi                            1852.831135      450418
 fftbrc_mpi                           1642.754705      450418
 fftbas_plan_mpi                      1641.383009      450418
 fftwav_mpi                           1059.716720      268470
 orthch                                739.592078         933
 dfftw_execute                         646.675959     1351254
 m_alltoall_d                          641.100290     1877022
 m_sumb_d                              574.100945      790540
 lincom                                522.375618        2803
 m_alltoallv_z                         472.992899      452288
 map_forward                           446.587299      607590
 soft_charge                           429.392427         933
 eddiag                                344.401308         485
 fftext_mpi                            339.122548      110369
 redis_pw                              335.288671      223849
 orth1                                 329.058543      116663
 redis_proj                            323.832647      178763
 map_backward                          269.498276      293246
 choleski                              206.685482         933
 ggaall_grid                           196.690812        1069
 hamilt_local                          195.219880       54502
 kinhamil                              176.081860       56700
 eddav                                 125.512228           5
 eccp                                  120.036563      218484
 map_scatter                            97.617028      452288
 racc0                                  90.879909       55867
 rpro1                                  77.439631       55272
 augmentation_charge                    76.768201         933
 map_gather                             65.466302      452288
 redis_pw_over_bands                    56.050383         936
 redis_pw_all                           56.046377         929
 force_and_stress                       47.086753           4
 pw_charge                              41.872281       93428
 setdij_                                34.441833        1042
 rpro_isp                               30.702338          52
 vhamil                                 26.674119       56700
 strnlr                                 22.816225           4
 w1_dscal                               18.156710       53669
 set_dd_paw                             11.975402         941
 hamiltmu                               11.530565        2198
 m_bcast_z                               9.714763        2023
 fornlr                                  7.586263           4
 densta                                  7.560688         944
 depsum                                  6.982237         933
 rpromu                                  6.416698        1560
 ggemm                                   5.854409        2793
 fft_gq                                  4.836814         933
 m_bcast_d                               4.408810        7547
 newband                                 3.636021        2203
 raccmu_                                 3.512192        2198
 lapack                                  3.406364        2198
 overl                                   2.897415       59312
 proall                                  2.402310           4
 w1_projall                              2.292686        1603
 rpromu_gemm                             1.972781      318240
 rspher_all                              1.618077          53
 pothar                                  1.538578         937
 fewald                                  1.519843        1878
 forloc                                  1.481870           4
 forhar                                  1.457711           4
 rsp                                     1.278440        1878
 stufak                                  0.931458           4
 fordep                                  0.747966           4
 wavpre_noio                             0.724734           3
 inisym                                  0.355490           1
 w1_copy                                 0.254215        6594
 rcp                                     0.094040        1878
 apply_precond                           0.084841        1603
 setup_precond                           0.076056         595
 overl1                                  0.068872        2198
 strkin                                  0.043178           4
 posmap                                  0.037644           2
 strehar                                 0.019753           4
 strelo                                  0.017858           4
 truncate_high_frequency_w1              0.002419        2793
 set_rsgf_all                            0.002168         941
 potlok_metagga                          0.001211         937
 brgrid                                  0.000643           1
 phaser                                  0.000403         508
 crpa_reader                             0.000232           1
 rotate_active_occupied_orbital          0.000074           4
 vectorpot                               0.000032           1
 set_dd_magatom                          0.000027           8
 shift_bands_between_low_high            0.000011           7

Profiling took  11.381738  3.712965  0.007480  0.006678 seconds
Profiling took  13.302204 seconds