 vasp.6.3.2 27Jun22 (build Jan 03 2024 23:25:20) gamma-only

 executed on           IFC15_impi date 2024.02.02  12:55:18

 INCAR:
   ENCUT = 500.000000
   SIGMA = 0.010000
   EDIFF = 1.00e-05
   ALGO = A
   ISMEAR = 0
   NELM = 2000
   NSW = 500
   NCORE = 32
   LCHARG = .FALSE.
   LWAVE = .FALSE.
   LREAL = Auto
   IBRION = 2
   EDIFFG = -0.05
   GGA = BF
   LUSE_VDW = .TRUE.
   ZAB_VDW = -1.8867
   LBEEFENS = .TRUE.
   DIPOL = 0.5 0.5 0.65
   IDIPOL = 3
   LDIPOL = .TRUE.

 POTCAR:    PAW_PBE Au 04Oct2007
 POTCAR:    PAW_PBE C 08Apr2002
 POTCAR:    PAW_PBE H 15Jun2001
 POTCAR:    PAW_PBE O 08Apr2002
 POTCAR:    PAW_PBE Sr_sv 07Sep2000
 POTCAR:    PAW_PBE Ti_sv 26Sep2005
|               ----> ADVICE to this user running VASP <----                  |
|     You have switched on vdW-DFT.                                           |
|     This routine was written and supplied by Jiri Klimes. We recommend      |
|     that you carefully read and cite the following publications:            |
|       J. Klimes, D.R. Bowler, A. Michelides                                 |
|          J. Phys.: Cond Matt. 22 022201 (2010)                              |
|       J. Klimes, D.R. Bowler, A. Michelides                                 |
|          Phys. Rev. B. 83, 195131 (2011)                                    |
|     and references therein.                                                 |

   TITEL  = PAW_PBE Au 04Oct2007
   POMASS =  196.966; ZVAL   =   11.000    mass and valenz
   ENMAX  =  229.943; ENMIN  =  172.457 eV

   TITEL  = PAW_PBE C 08Apr2002
   POMASS =   12.011; ZVAL   =    4.000    mass and valenz
   ENMAX  =  400.000; ENMIN  =  300.000 eV

   TITEL  = PAW_PBE H 15Jun2001
   POMASS =    1.000; ZVAL   =    1.000    mass and valenz
   ENMAX  =  250.000; ENMIN  =  200.000 eV

   TITEL  = PAW_PBE O 08Apr2002
   POMASS =   16.000; ZVAL   =    6.000    mass and valenz
   ENMAX  =  400.000; ENMIN  =  300.000 eV

   TITEL  = PAW_PBE Sr_sv 07Sep2000
   POMASS =   87.620; ZVAL   =   10.000    mass and valenz
   ENMAX  =  229.353; ENMIN  =  172.014 eV

   TITEL  = PAW_PBE Ti_sv 26Sep2005
   POMASS =   47.880; ZVAL   =   12.000    mass and valenz
   ENMAX  =  274.610; ENMIN  =  205.957 eV

 Optimization of the real space projectors (new method)

 maximal supplied QI-value         = 15.12
 optimisation between [QCUT,QGAM] = [ 11.34, 22.83] = [ 36.00,145.93] Ry
 Optimized for a Real-space Cutoff    1.39 Angstroem

   l    n(q)    QCUT    max X(q) W(low)/X(q) W(high)/X(q)  e(spline)
   2      9    11.338    60.898    0.39E-03    0.42E-03    0.21E-06
   2      9    11.338    58.894    0.40E-03    0.42E-03    0.22E-06
   0      9    11.338   109.617    0.13E-03    0.20E-04    0.13E-06
   0      9    11.338    75.026    0.13E-03    0.20E-04    0.13E-06
   1      9    11.338    16.344    0.33E-04    0.24E-03    0.18E-06
   1      9    11.338    10.160    0.26E-04    0.19E-03    0.15E-06
 Optimization of the real space projectors (new method)

[...]

   l    n(q)    QCUT    max X(q) W(low)/X(q) W(high)/X(q)  e(spline)
   0     11    11.338    11.565    0.26E-04    0.80E-05    0.70E-07
   0     11    11.338    10.214    0.41E-04    0.15E-04    0.15E-06
   1     10    11.338   189.983    0.18E-03    0.52E-04    0.42E-06
   1     10    11.338   193.105    0.19E-03    0.52E-04    0.42E-06
   2     10    11.338   115.941    0.22E-03    0.42E-03    0.43E-06
   2     10    11.338    76.444    0.21E-03    0.41E-03    0.42E-06
 Optimization of the real space projectors (new method)

 maximal supplied QI-value         = 16.25
 optimisation between [QCUT,QGAM] = [ 11.38, 22.75] = [ 36.24,144.96] Ry
 Optimized for a Real-space Cutoff    1.27 Angstroem

   l    n(q)    QCUT    max X(q) W(low)/X(q) W(high)/X(q)  e(spline)
   0      9    11.376    12.277    0.53E-04    0.25E-04    0.25E-07
   0      9    11.376    11.419    0.89E-04    0.67E-05    0.35E-07
   1      8    11.376     4.010    0.13E-03    0.11E-03    0.29E-07
   1      8    11.376     6.182    0.94E-04    0.19E-03    0.11E-06
   2      8    11.376    47.177    0.13E-03    0.88E-03    0.24E-06
   2      8    11.376    42.437    0.13E-03    0.86E-03    0.23E-06
|               ----> ADVICE to this user running VASP <----                  |
|     You enforced a specific xc type in the INCAR file but a different       |
|     type was found in the POTCAR file.                                      |
|     I HOPE YOU KNOW WHAT YOU ARE DOING!                                     |

  PAW_PBE Au 04Oct2007                  :
  PAW_PBE C 08Apr2002                   :
  PAW_PBE H 15Jun2001                   :
  PAW_PBE O 08Apr2002                   :
  PAW_PBE Sr_sv 07Sep2000               :
  PAW_PBE Ti_sv 26Sep2005               :

 POSCAR: Au  C  H  O Sr Ti
  positions in direct lattice
  velocities in cartesian coordinates
 exchange correlation table for  LEXCH =       17
   RHO(1)=    0.500       N(1)  =     2000
   RHO(2)=  100.500       N(2)  =     4000

 VTST: version 4.1, (05/19/21)

 CHAIN: initializing optimizer

 OPT: Using VASP Conjugate-Gradient optimizer
 CHAIN: Read ICHAIN            0

 POSCAR: Au  C  H  O Sr Ti
  positions in direct lattice
  velocities in cartesian coordinates

 ion  position               nearest neighbor table
   1  0.713  0.532  0.755-  46 2.70  45 2.74  50 2.78  14 2.78  48 2.81  22 2.91  16 3.15   7 3.53

   2  0.570  0.513  0.858-   4 2.75  45 2.83  22 2.85  35 2.87  17 2.91  21 2.94  37 3.04  29 3.60

   3  0.641  0.181  0.743-  52 2.07  27 2.77  33 2.87  49 3.12  26 3.24 331 4.26
   4  0.471  0.453  0.878-   2 2.75  43 2.76  21 2.77  10 2.80  37 2.80
   5  0.523  0.381  0.734-  35 2.84  36 2.85  19 2.87  26 2.87  34 2.88  37 2.89  16 3.07  33 3.24
                             8 3.25  43 3.36 347 4.18
   6  0.281  0.342  0.703- 177 2.07  41 2.77  11 2.83   8 2.92  31 3.04 370 3.55 344 4.03
   7  0.669  0.683  0.748-  23 2.62  46 2.66  30 2.74  45 2.75  44 3.05  50 3.08  18 3.39   1 3.53

   8  0.397  0.382  0.691- 133 2.03 182 2.13  41 2.79  42 2.90  19 2.91   6 2.92  11 3.08   5 3.25
                           370 3.39  40 3.51  34 3.60 347 3.82
   9  0.451  0.579  0.704- 152 2.11  29 2.69  34 2.70  13 2.73  18 2.88  19 2.88  42 3.03  35 3.53
                           353 3.67
  10  0.375  0.496  0.834-   4 2.80  25 2.81  12 2.84  11 2.86  19 2.87  21 2.89  43 3.07
  11  0.323  0.417  0.771-  41 2.80   6 2.83  10 2.86  25 2.87  31 2.93  42 2.97  43 3.01  19 3.04
                             8 3.08
  12  0.370  0.622  0.820-  32 2.75  21 2.77  10 2.84  39 2.88  25 2.92  20 2.96  29 3.39
  13  0.415  0.695  0.700- 184 2.04   9 2.73  20 2.78  38 2.78  47 2.99  18 3.02  28 3.07  32 3.58
                           338 4.02 353 4.12
  14  0.772  0.438  0.794-  48 2.72   1 2.78  24 2.82  22 2.93
  15  0.258  0.594  0.694- 161 2.04 146 2.11  32 2.69  31 2.85  25 2.88  42 2.97  28 3.52 338 3.56
                           346 3.70
  16  0.636  0.436  0.707- 174 2.27  26 2.85  48 2.85  24 2.93  35 2.94  50 2.98  22 3.07   5 3.07
                             1 3.15  34 3.23 350 3.69
  17  0.562  0.642  0.865-  45 2.76  30 2.82  21 2.82  39 2.84   2 2.91  29 3.00
  18  0.539  0.667  0.702- 175 2.11  29 2.75   9 2.88  50 2.94  44 2.95  13 3.02  47 3.17  30 3.18
                             7 3.39 353 3.48
  19  0.439  0.470  0.755-  35 2.80   5 2.87  10 2.87  43 2.88   9 2.88  42 2.89   8 2.91  34 2.93
                            11 3.04  29 3.60
  20  0.376  0.743  0.780-  32 2.75  13 2.78  38 2.78  39 2.81  47 2.82  12 2.96  28 3.20
  21  0.461  0.576  0.868-   4 2.77  12 2.77  17 2.82  10 2.89   2 2.94  29 2.95  39 2.97
  22  0.650  0.446  0.808-   2 2.85  24 2.85  37 2.86  35 2.88   1 2.91  14 2.93  16 3.07  45 3.27

[...]

  25  0.290  0.540  0.778-  32 2.81  10 2.81  31 2.82  11 2.87  15 2.88  12 2.92  42 2.93
  26  0.614  0.311  0.699- 187 2.04  33 2.73  24 2.85  16 2.85   5 2.87  27 2.87   3 3.24  49 3.54
                           350 3.63 347 4.27
  27  0.538  0.211  0.706- 145 2.11  36 2.76  40 2.77   3 2.77  26 2.87  33 3.32 339 3.72
  28  0.295  0.747  0.695- 146 2.06 163 2.06  32 2.75  38 2.80  13 3.07  20 3.20  15 3.52 349 4.15
                           338 4.17
  29  0.504  0.612  0.779-   9 2.69  18 2.75  39 2.81  35 2.86  21 2.95  17 3.00  45 3.08  30 3.09
                            12 3.39   2 3.60  19 3.60
  30  0.578  0.724  0.794-  47 2.73   7 2.74  17 2.82  44 2.83  39 3.03  29 3.09  18 3.18  45 3.23

  31  0.239  0.470  0.711- 147 2.12  42 2.67  25 2.82  15 2.85  11 2.93   6 3.04 344 4.20
  32  0.289  0.665  0.763-  15 2.69  12 2.75  20 2.75  28 2.75  25 2.81  13 3.58
  33  0.601  0.286  0.787-  26 2.73  37 2.80  36 2.84  24 2.85   3 2.87   5 3.24  27 3.32
  34  0.513  0.485  0.677- 174 2.11  76 2.14   9 2.70  35 2.79   5 2.88  19 2.93 438 3.12  16 3.23
                            50 3.29 347 3.53   8 3.60 353 4.00
  35  0.554  0.498  0.764-  34 2.79  19 2.80   5 2.84  29 2.86   2 2.87  22 2.88  50 2.92  16 2.94
                            45 2.95  37 3.19   9 3.53
  36  0.483  0.273  0.773-  27 2.76  40 2.82  33 2.84   5 2.85  41 2.86  43 2.90  37 3.36
  37  0.548  0.384  0.828-   4 2.80  33 2.80  22 2.86  43 2.88   5 2.89   2 3.04  35 3.19  36 3.36

[...]

  44  0.596  0.784  0.713- 183 2.09  23 2.78  30 2.83  47 2.88  18 2.95   7 3.05 343 4.16 356 4.35

  45  0.629  0.590  0.800-   1 2.74   7 2.75  17 2.76   2 2.83  35 2.95  50 2.96  29 3.08  30 3.23
                            22 3.27
  46  0.733  0.618  0.693- 154 2.09 162 2.13   7 2.66   1 2.70  50 2.83  23 3.20 342 3.39 329 3.70

  47  0.487  0.777  0.755-  30 2.73  38 2.82  20 2.82  44 2.88  13 2.99  39 3.01  18 3.17
  48  0.757  0.437  0.704- 185 2.00  14 2.72   1 2.81  16 2.85  24 2.91 324 3.79 350 4.05
  49  0.747  0.238  0.697-  51 2.02  52 2.06 141 2.07 125 2.19 433 3.00   3 3.12  24 3.30  26 3.54
                           331 4.16 340 4.17
  50  0.623  0.569  0.703- 160 2.07   1 2.78  46 2.83  35 2.92  18 2.94  45 2.96  16 2.98   7 3.08
                            34 3.29 342 3.68
  51  0.764  0.283  0.754-  53 1.09  54 1.09  49 2.02  24 2.13
  52  0.727  0.166  0.736-  55 1.09  56 1.09  49 2.06   3 2.07
  53  0.760  0.258  0.785-  51 1.09
  54  0.804  0.307  0.753-  51 1.09
  55  0.748  0.164  0.769-  52 1.09
  56  0.733  0.125  0.717-  52 1.09
  57  0.750  0.187  0.454- 449 1.98 447 2.10 332 2.79 381 2.79 360 2.80 372 2.85
  58  0.583  0.063  0.546- 401 1.84 440 2.23 378 2.70 366 2.70 339 2.96 331 3.05
  59  0.585  0.815  0.551- 403 1.92 443 2.07 368 2.78 367 2.80 343 2.91 356 3.01
  60  0.747  0.314  0.549- 448 1.93 433 2.05 350 2.63 360 2.74 372 2.87 324 3.01
  61  0.581  0.560  0.549- 438 1.90 426 2.08 353 2.70 359 2.74 342 2.83 363 2.87
  62  0.253  0.559  0.544- 452 1.91 430 2.05 374 2.63 326 2.79 338 2.86 346 3.18
  63  0.416  0.319  0.552- 437 1.95 425 1.98 347 2.71 370 2.72 391 2.97 362 2.98
  64  0.577  0.436  0.552- 438 1.95 419 2.04 347 2.62 359 2.75 350 3.00 363 3.01
  65  0.417  0.065  0.547- 454 1.84 431 2.26 361 2.74 378 2.76 339 2.93 328 3.05
  66  0.085  0.813  0.547- 457 1.85 462 2.17 365 2.67 390 2.73 348 3.16 334 3.37
  67  0.085  0.313  0.547- 451 1.84 442 2.24 379 2.71 389 2.74 344 2.91 341 3.34
[...]
  379          fft3d_mpi                             1.495484                        420   4
  380            fftbrc_mpi                            1.269148                      420   5
  381              fftbas_plan_mpi                       1.267778                    420   6
  382                dfftw_execute                         0.639237                 1260   7
  383                map_forward                           0.375766                  840   7
  384                  map_gather                            0.037895                420   8
  385                  m_alltoallv_z                         0.138255                420   8
  386                  map_scatter                           0.077091                420   8
  387        hamilt_local                          1.485591                          420   3
  388          vhamil                                0.196847                        420   4
  389          kinhamil                              1.285252                        420   4
  390            fftext_mpi                            1.269589                      420   5
  391              fft3d_mpi                             1.240928                    420   6
  392                fftbrc_mpi                            1.045669                  420   7
  393                  fftbas_plan_mpi                       1.044514                420   8
  394                    dfftw_execute                         0.545544             1260   9
  395                    map_backward                          0.250678              840   9
  396                      map_gather                            0.066005            420  10
  397                      m_alltoallv_z                         0.120207            420  10
  398                      map_scatter                           0.057990            420  10
  399        redis_pw                              1.046600                          423   3
  400          m_alltoall_d                          1.016562                       1260   4
  401        orth1                                 0.854012                          210   3
  402        m_sumb_d                              0.694461                            3   3
  403        shift_bands_between_low_high          0.000004                            3   3
  404        lincom                                0.917530                            3   3
  405      set_charge                            1.761632                              3   2
  406        soft_charge                           1.604114                            3   3
  407          fftwav_mpi                            1.381050                        354   4
  408            fft3d_mpi                             1.241178                      354   5
  409              fftbrc_mpi                            1.056269                    354   6
  410                fftbas_plan_mpi                       1.055107                  354   7
  411                  dfftw_execute                         0.533667               1062   8
  412                  map_forward                           0.301416                708   8
  413                    map_gather                            0.032145              354   9
  414                    m_alltoallv_z                         0.106234              354   9
  415                    map_scatter                           0.065647              354   9
  416          pw_charge                             0.160395                        354   4
  417          m_sumb_d                              0.041479                          3   4
  418          fft_gq                                0.014996                          3   4
  419            fft3d_mpi                             0.014460                        3   5
  420              fftbrc_mpi                            0.013544                      3   6
  421                fftbas_plan_mpi                       0.013535                    3   7
  422                  dfftw_execute                         0.002624                  9   8
  423                  map_backward                          0.009189                  6   8
  424                    map_gather                            0.000988                6   9
  425                    m_alltoallv_z                         0.007733                6   9
  426                    map_scatter                           0.000387                6   9
  427        depsum                                0.005671                            3   3
  428          m_sumb_d                              0.002267                          3   4
  429        augmentation_charge                   0.151292                            3   3
  430          m_sumb_d                              0.007889                          3   4
  431          fft3d_mpi                             0.029989                          3   4
  432            fftbrc_mpi                            0.029306                        3   5
  433              fftbas_plan_mpi                       0.029299                      3   6
  434                dfftw_execute                         0.003436                    9   7
  435                map_backward                          0.023648                    6   7
  436                  map_gather                            0.001280                  3   8
  437                  m_alltoallv_z                         0.021566                  3   8
  438                  map_scatter                           0.000749                  3   8

 Flat profile

 edwav                                7966.730179         728
 potlok                               1321.476135         736
 m_alltoall_d                          710.576414     1752198
 m_sumb_d                              630.124706      735247
 dfftw_execute                         589.432566     1237779
 lincom                                568.244487        2197
 m_alltoallv_z                         466.260321      414061
 orth1                                 363.820728      109862
 fftbas_plan_mpi                       255.121476      412593
 choleski                              252.606251         731
 fft3d_mpi                             192.607076      412593
 ggaall_grid                           156.942691         868
 eddiag                                125.075833         374
 fftwav_mpi                            102.691839      251475
 eccp                                  100.725331      203700
 eddav                                  91.341903           5
 map_scatter                            85.878047      414061
 total_time                             83.932185           1
 racc0                                  80.524884       53094
 rpro1                                  75.172825       52394
 map_forward                            71.884163      558726
 map_gather                             56.418599      414061
 pw_charge                              38.598494       86347
 augmentation_charge                    28.754128         732
 vhamil                                 25.512125       54074
 setdij_                                25.029746         841
 w1_dscal                               16.927731       50540
 redis_pw                               11.507715      211944
 m_bcast_z                              11.165988        2380
 orthch                                 10.381057         731
 fftext_mpi                              7.756279      104614
 ggemm                                   7.674835        3254
 force_and_stress                        7.265832           4
 redis_proj                              5.401787      168456
 rpromu                                  5.217271        1820
 m_bcast_d                               4.019864        8414
 lapack                                  3.867051        2554
 overl                                   3.352522       56408
 rpromu_gemm                             2.767859      413140
 map_backward                            2.292378      266460
 elmin_all                               1.854178           4
 rspher_all                              1.851260          53
 kinhamil                                1.824206       54074
 soft_charge                             1.674963         732
 forloc                                  1.668520           4
 forhar                                  1.646902           4
 densta                                  1.390600         743
 fftbrc_mpi                              1.268715      412593
 stufak                                  1.066368           4
 rsp                                     1.018639        1476
 depsum                                  0.832795         732
 hamilt_local                            0.415424       51520
 set_dd_paw                              0.383882         740
 pothar                                  0.377421         736
 w1_copy                                 0.289496        7662
 set_charge                              0.181658         732
 rpro_isp                                0.135030          52
 fft_gq                                  0.117147         732
 apply_precond                           0.100024        1854
 overl1                                  0.092707        2554
 strnlr                                  0.085343           4
 rcp                                     0.076477        1476
 setup_precond                           0.060068         700
 inisym                                  0.058388           1
 wavpre_noio                             0.048715           3
 fewald                                  0.043038        1476
 hamiltmu                                0.039740        2554
 raccmu_                                 0.031151        2554
 newband                                 0.030609        2559
 strehar                                 0.027491           4
 strelo                                  0.024594           4
 fornlr                                  0.023128           4
 strkin                                  0.021152           4
 w1_projall                              0.010594        1854
 redis_pw_all                            0.005126         728
 truncate_high_frequency_w1              0.003275        3254
 redis_pw_over_bands                     0.003009         735
 set_rsgf_all                            0.001747         740
 fordep                                  0.000889           4
 potlok_metagga                          0.000852         736
 brgrid                                  0.000680           1
 phaser                                  0.000320         418
 posmap                                  0.000270           2
 crpa_reader                             0.000237           1
 proall                                  0.000076           4
 rotate_active_occupied_orbital          0.000053           4
 vectorpot                               0.000035           1
 set_dd_magatom                          0.000021           8
 shift_bands_between_low_high            0.000010           7
  summed up times    14583.8683240414

 Accumulative profile

 total_time                          14583.868324           1
 elmin_all                           14314.083246           4
 edwav                               11376.384075         728
 potlok                               1998.347672         736
 fft3d_mpi                            1721.163340      412593
 fftbrc_mpi                           1528.556264      412593
 fftbas_plan_mpi                      1527.287549      412593
 fftwav_mpi                            986.375945      251475
 orthch                                906.104508         731
 m_alltoall_d                          710.576414     1752198
 m_sumb_d                              630.124706      735247
 dfftw_execute                         589.432566     1237779
 lincom                                568.244487        2197
 m_alltoallv_z                         466.260321      414061
 set_charge                            433.149037         732
 map_forward                           423.589408      558726
 soft_charge                           392.697497         732
 redis_proj                            385.438585      168456
 eddiag                                372.394683         374
 orth1                                 363.820728      109862
 redis_pw                              342.047332      211944
 fftext_mpi                            319.278519      104614
 map_backward                          259.144099      266460
 choleski                              252.606251         731
 hamilt_local                          182.560125       51520
 eddav                                 173.672923           5
 kinhamil                              165.810907       54074
 ggaall_grid                           156.942691         868
 eccp                                  113.303786      203700
 racc0                                 102.602642       53094
 rpro1                                  88.595975       52394
 map_scatter                            85.878047      414061
 map_gather                             56.418599      414061
 redis_pw_over_bands                    56.064189         735
 redis_pw_all                           56.061180         728
 force_and_stress                       55.137088           4
 augmentation_charge                    38.726231         732
 pw_charge                              38.598494       86347
 rpro_isp                               37.994389          52
 setdij_                                33.857167         841
 strnlr                                 27.890649           4
 densta                                 27.114589         743
 vhamil                                 25.512125       54074
 w1_dscal                               16.927731       50540
 hamiltmu                               13.863694        2554
 m_bcast_z                              11.165988        2380
 set_dd_paw                              9.589465         740
 fornlr                                  9.289094           4
 rpromu                                  9.275232        1820
 ggemm                                   7.674835        3254
 raccmu_                                 4.645623        2554
 newband                                 4.287716        2559
 m_bcast_d                               4.019864        8414
 fft_gq                                  3.969669         732
 lapack                                  3.867051        2554
 overl                                   3.352522       56408
 w1_projall                              3.068285        1854
 proall                                  2.954547           4
 rpromu_gemm                             2.767859      413140
 pothar                                  2.087185         736
 rspher_all                              1.851260          53
 forloc                                  1.680400           4
 forhar                                  1.677571           4
 depsum                                  1.543651         732
 fewald                                  1.264294        1476
 stufak                                  1.066368           4
 rsp                                     1.018639        1476
 fordep                                  0.952837           4
 wavpre_noio                             0.847869           3
 w1_copy                                 0.289496        7662
 apply_precond                           0.100024        1854
 overl1                                  0.092707        2554
 setup_precond                           0.086665         700
 rcp                                     0.076477        1476
 inisym                                  0.058658           1
 strelo                                  0.032048           4
 strehar                                 0.029352           4
 strkin                                  0.022494           4
 truncate_high_frequency_w1              0.003275        3254
 set_rsgf_all                            0.001747         740
 potlok_metagga                          0.000852         736
 brgrid                                  0.000680           1
 phaser                                  0.000320         418
 posmap                                  0.000270           2
 crpa_reader                             0.000237           1
 rotate_active_occupied_orbital          0.000053           4
 vectorpot                               0.000035           1
 set_dd_magatom                          0.000021           8
 shift_bands_between_low_high            0.000010           7

Profiling took  10.443546  3.421640  0.007937  0.007147 seconds
Profiling took  12.339549 seconds